# vtk DataFile Version 3.0
STAP++ results
ASCII
DATASET UNSTRUCTURED_GRID
POINTS 441 float
0 0.1 0
0 0.145 0
0 0.19 0
0 0.235 0
0 0.28 0
0 0.325 0
0 0.37 0
0 0.415 0
0 0.46 0
0 0.505 0
0 0.55 0
0 0.595 0
0 0.64 0
0 0.685 0
0 0.73 0
0 0.775 0
0 0.82 0
0 0.865 0
0 0.91 0
0 0.955 0
0 1 0
0.1 0.125 0
0.1 0.16875 0
0.1 0.2125 0
0.1 0.25625 0
0.1 0.3 0
0.1 0.34375 0
0.1 0.3875 0
0.1 0.43125 0
0.1 0.475 0
0.1 0.51875 0
0.1 0.5625 0
0.1 0.60625 0
0.1 0.65 0
0.1 0.69375 0
0.1 0.7375 0
0.1 0.78125 0
0.1 0.825 0
0.1 0.86875 0
0.1 0.9125 0
0.1 0.95625 0
0.1 1 0
0.2 0.15 0
0.2 0.1925 0
0.2 0.235 0
0.2 0.2775 0
0.2 0.32 0
0.2 0.3625 0
0.2 0.405 0
0.2 0.4475 0
0.2 0.49 0
0.2 0.5325 0
0.2 0.575 0
0.2 0.6175 0
0.2 0.66 0
0.2 0.7025 0
0.2 0.745 0
0.2 0.7875 0
0.2 0.83 0
0.2 0.8725 0
0.2 0.915 0
0.2 0.9575 0
0.2 1 0
0.3 0.175 0
0.3 0.21625 0
0.3 0.2575 0
0.3 0.29875 0
0.3 0.34 0
0.3 0.38125 0
0.3 0.4225 0
0.3 0.46375 0
0.3 0.505 0
0.3 0.54625 0
0.3 0.5875 0
0.3 0.62875 0
0.3 0.67 0
0.3 0.71125 0
0.3 0.7525 0
0.3 0.79375 0
0.3 0.835 0
0.3 0.87625 0
0.3 0.9175 0
0.3 0.95875 0
0.3 1 0
0.4 0.2 0
0.4 0.24 0
0.4 0.28 0
0.4 0.32 0
0.4 0.36 0
0.4 0.4 0
0.4 0.44 0
0.4 0.48 0
0.4 0.52 0
0.4 0.56 0
0.4 0.6 0
0.4 0.64 0
0.4 0.68 0
0.4 0.72 0
0.4 0.76 0
0.4 0.8 0
0.4 0.84 0
0.4 0.88 0
0.4 0.92 0
0.4 0.96 0
0.4 1 0
0.5 0.225 0
0.5 0.26375 0
0.5 0.3025 0
0.5 0.34125 0
0.5 0.38 0
0.5 0.41875 0
0.5 0.4575 0
0.5 0.49625 0
0.5 0.535 0
0.5 0.57375 0
0.5 0.6125 0
0.5 0.65125 0
0.5 0.69 0
0.5 0.72875 0
0.5 0.7675 0
0.5 0.80625 0
0.5 0.845 0
0.5 0.88375 0
0.5 0.9225 0
0.5 0.96125 0
0.5 1 0
0.6 0.25 0
0.6 0.2875 0
0.6 0.325 0
0.6 0.3625 0
0.6 0.4 0
0.6 0.4375 0
0.6 0.475 0
0.6 0.5125 0
0.6 0.55 0
0.6 0.5875 0
0.6 0.625 0
0.6 0.6625 0
0.6 0.7 0
0.6 0.7375 0
0.6 0.775 0
0.6 0.8125 0
0.6 0.85 0
0.6 0.8875 0
0.6 0.925 0
0.6 0.9625 0
0.6 1 0
0.7 0.275 0
0.7 0.31125 0
0.7 0.3475 0
0.7 0.38375 0
0.7 0.42 0
0.7 0.45625 0
0.7 0.4925 0
0.7 0.52875 0
0.7 0.565 0
0.7 0.60125 0
0.7 0.6375 0
0.7 0.67375 0
0.7 0.71 0
0.7 0.74625 0
0.7 0.7825 0
0.7 0.81875 0
0.7 0.855 0
0.7 0.89125 0
0.7 0.9275 0
0.7 0.96375 0
0.7 1 0
0.8 0.3 0
0.8 0.335 0
0.8 0.37 0
0.8 0.405 0
0.8 0.44 0
0.8 0.475 0
0.8 0.51 0
0.8 0.545 0
0.8 0.58 0
0.8 0.615 0
0.8 0.65 0
0.8 0.685 0
0.8 0.72 0
0.8 0.755 0
0.8 0.79 0
0.8 0.825 0
0.8 0.86 0
0.8 0.895 0
0.8 0.93 0
0.8 0.965 0
0.8 1 0
0.9 0.325 0
0.9 0.35875 0
0.9 0.3925 0
0.9 0.42625 0
0.9 0.46 0
0.9 0.49375 0
0.9 0.5275 0
0.9 0.56125 0
0.9 0.595 0
0.9 0.62875 0
0.9 0.6625 0
0.9 0.69625 0
0.9 0.73 0
0.9 0.76375 0
0.9 0.7975 0
0.9 0.83125 0
0.9 0.865 0
0.9 0.89875 0
0.9 0.9325 0
0.9 0.96625 0
0.9 1 0
1 0.35 0
1 0.3825 0
1 0.415 0
1 0.4475 0
1 0.48 0
1 0.5125 0
1 0.545 0
1 0.5775 0
1 0.61 0
1 0.6425 0
1 0.675 0
1 0.7075 0
1 0.74 0
1 0.7725 0
1 0.805 0
1 0.8375 0
1 0.87 0
1 0.9025 0
1 0.935 0
1 0.9675 0
1 1 0
1.1 0.375 0
1.1 0.40625 0
1.1 0.4375 0
1.1 0.46875 0
1.1 0.5 0
1.1 0.53125 0
1.1 0.5625 0
1.1 0.59375 0
1.1 0.625 0
1.1 0.65625 0
1.1 0.6875 0
1.1 0.71875 0
1.1 0.75 0
1.1 0.78125 0
1.1 0.8125 0
1.1 0.84375 0
1.1 0.875 0
1.1 0.90625 0
1.1 0.9375 0
1.1 0.96875 0
1.1 1 0
1.2 0.4 0
1.2 0.43 0
1.2 0.46 0
1.2 0.49 0
1.2 0.52 0
1.2 0.55 0
1.2 0.58 0
1.2 0.61 0
1.2 0.64 0
1.2 0.67 0
1.2 0.7 0
1.2 0.73 0
1.2 0.76 0
1.2 0.79 0
1.2 0.82 0
1.2 0.85 0
1.2 0.88 0
1.2 0.91 0
1.2 0.94 0
1.2 0.97 0
1.2 1 0
1.3 0.425 0
1.3 0.45375 0
1.3 0.4825 0
1.3 0.51125 0
1.3 0.54 0
1.3 0.56875 0
1.3 0.5975 0
1.3 0.62625 0
1.3 0.655 0
1.3 0.68375 0
1.3 0.7125 0
1.3 0.74125 0
1.3 0.77 0
1.3 0.79875 0
1.3 0.8275 0
1.3 0.85625 0
1.3 0.885 0
1.3 0.91375 0
1.3 0.9425 0
1.3 0.97125 0
1.3 1 0
1.4 0.45 0
1.4 0.4775 0
1.4 0.505 0
1.4 0.5325 0
1.4 0.56 0
1.4 0.5875 0
1.4 0.615 0
1.4 0.6425 0
1.4 0.67 0
1.4 0.6975 0
1.4 0.725 0
1.4 0.7525 0
1.4 0.78 0
1.4 0.8075 0
1.4 0.835 0
1.4 0.8625 0
1.4 0.89 0
1.4 0.9175 0
1.4 0.945 0
1.4 0.9725 0
1.4 1 0
1.5 0.475 0
1.5 0.50125 0
1.5 0.5275 0
1.5 0.55375 0
1.5 0.58 0
1.5 0.60625 0
1.5 0.6325 0
1.5 0.65875 0
1.5 0.685 0
1.5 0.71125 0
1.5 0.7375 0
1.5 0.76375 0
1.5 0.79 0
1.5 0.81625 0
1.5 0.8425 0
1.5 0.86875 0
1.5 0.895 0
1.5 0.92125 0
1.5 0.9475 0
1.5 0.97375 0
1.5 1 0
1.6 0.5 0
1.6 0.525 0
1.6 0.55 0
1.6 0.575 0
1.6 0.6 0
1.6 0.625 0
1.6 0.65 0
1.6 0.675 0
1.6 0.7 0
1.6 0.725 0
1.6 0.75 0
1.6 0.775 0
1.6 0.8 0
1.6 0.825 0
1.6 0.85 0
1.6 0.875 0
1.6 0.9 0
1.6 0.925 0
1.6 0.95 0
1.6 0.975 0
1.6 1 0
1.7 0.525 0
1.7 0.54875 0
1.7 0.5725 0
1.7 0.59625 0
1.7 0.62 0
1.7 0.64375 0
1.7 0.6675 0
1.7 0.69125 0
1.7 0.715 0
1.7 0.73875 0
1.7 0.7625 0
1.7 0.78625 0
1.7 0.81 0
1.7 0.83375 0
1.7 0.8575 0
1.7 0.88125 0
1.7 0.905 0
1.7 0.92875 0
1.7 0.9525 0
1.7 0.97625 0
1.7 1 0
1.8 0.55 0
1.8 0.5725 0
1.8 0.595 0
1.8 0.6175 0
1.8 0.64 0
1.8 0.6625 0
1.8 0.685 0
1.8 0.7075 0
1.8 0.73 0
1.8 0.7525 0
1.8 0.775 0
1.8 0.7975 0
1.8 0.82 0
1.8 0.8425 0
1.8 0.865 0
1.8 0.8875 0
1.8 0.91 0
1.8 0.9325 0
1.8 0.955 0
1.8 0.9775 0
1.8 1 0
1.9 0.575 0
1.9 0.59625 0
1.9 0.6175 0
1.9 0.63875 0
1.9 0.66 0
1.9 0.68125 0
1.9 0.7025 0
1.9 0.72375 0
1.9 0.745 0
1.9 0.76625 0
1.9 0.7875 0
1.9 0.80875 0
1.9 0.83 0
1.9 0.85125 0
1.9 0.8725 0
1.9 0.89375 0
1.9 0.915 0
1.9 0.93625 0
1.9 0.9575 0
1.9 0.97875 0
1.9 1 0
2 0.6 0
2 0.62 0
2 0.64 0
2 0.66 0
2 0.68 0
2 0.7 0
2 0.72 0
2 0.74 0
2 0.76 0
2 0.78 0
2 0.8 0
2 0.82 0
2 0.84 0
2 0.86 0
2 0.88 0
2 0.9 0
2 0.92 0
2 0.94 0
2 0.96 0
2 0.98 0
2 1 0
CELLS 400 2000
4 0 1 22 21
4 1 2 23 22
4 2 3 24 23
4 3 4 25 24
4 4 5 26 25
4 5 6 27 26
4 6 7 28 27
4 7 8 29 28
4 8 9 30 29
4 9 10 31 30
4 10 11 32 31
4 11 12 33 32
4 12 13 34 33
4 13 14 35 34
4 14 15 36 35
4 15 16 37 36
4 16 17 38 37
4 17 18 39 38
4 18 19 40 39
4 19 20 41 40
4 21 22 43 42
4 22 23 44 43
4 23 24 45 44
4 24 25 46 45
4 25 26 47 46
4 26 27 48 47
4 27 28 49 48
4 28 29 50 49
4 29 30 51 50
4 30 31 52 51
4 31 32 53 52
4 32 33 54 53
4 33 34 55 54
4 34 35 56 55
4 35 36 57 56
4 36 37 58 57
4 37 38 59 58
4 38 39 60 59
4 39 40 61 60
4 40 41 62 61
4 42 43 64 63
4 43 44 65 64
4 44 45 66 65
4 45 46 67 66
4 46 47 68 67
4 47 48 69 68
4 48 49 70 69
4 49 50 71 70
4 50 51 72 71
4 51 52 73 72
4 52 53 74 73
4 53 54 75 74
4 54 55 76 75
4 55 56 77 76
4 56 57 78 77
4 57 58 79 78
4 58 59 80 79
4 59 60 81 80
4 60 61 82 81
4 61 62 83 82
4 63 64 85 84
4 64 65 86 85
4 65 66 87 86
4 66 67 88 87
4 67 68 89 88
4 68 69 90 89
4 69 70 91 90
4 70 71 92 91
4 71 72 93 92
4 72 73 94 93
4 73 74 95 94
4 74 75 96 95
4 75 76 97 96
4 76 77 98 97
4 77 78 99 98
4 78 79 100 99
4 79 80 101 100
4 80 81 102 101
4 81 82 103 102
4 82 83 104 103
4 84 85 106 105
4 85 86 107 106
4 86 87 108 107
4 87 88 109 108
4 88 89 110 109
4 89 90 111 110
4 90 91 112 111
4 91 92 113 112
4 92 93 114 113
4 93 94 115 114
4 94 95 116 115
4 95 96 117 116
4 96 97 118 117
4 97 98 119 118
4 98 99 120 119
4 99 100 121 120
4 100 101 122 121
4 101 102 123 122
4 102 103 124 123
4 103 104 125 124
4 105 106 127 126
4 106 107 128 127
4 107 108 129 128
4 108 109 130 129
4 109 110 131 130
4 110 111 132 131
4 111 112 133 132
4 112 113 134 133
4 113 114 135 134
4 114 115 136 135
4 115 116 137 136
4 116 117 138 137
4 117 118 139 138
4 118 119 140 139
4 119 120 141 140
4 120 121 142 141
4 121 122 143 142
4 122 123 144 143
4 123 124 145 144
4 124 125 146 145
4 126 127 148 147
4 127 128 149 148
4 128 129 150 149
4 129 130 151 150
4 130 131 152 151
4 131 132 153 152
4 132 133 154 153
4 133 134 155 154
4 134 135 156 155
4 135 136 157 156
4 136 137 158 157
4 137 138 159 158
4 138 139 160 159
4 139 140 161 160
4 140 141 162 161
4 141 142 163 162
4 142 143 164 163
4 143 144 165 164
4 144 145 166 165
4 145 146 167 166
4 147 148 169 168
4 148 149 170 169
4 149 150 171 170
4 150 151 172 171
4 151 152 173 172
4 152 153 174 173
4 153 154 175 174
4 154 155 176 175
4 155 156 177 176
4 156 157 178 177
4 157 158 179 178
4 158 159 180 179
4 159 160 181 180
4 160 161 182 181
4 161 162 183 182
4 162 163 184 183
4 163 164 185 184
4 164 165 186 185
4 165 166 187 186
4 166 167 188 187
4 168 169 190 189
4 169 170 191 190
4 170 171 192 191
4 171 172 193 192
4 172 173 194 193
4 173 174 195 194
4 174 175 196 195
4 175 176 197 196
4 176 177 198 197
4 177 178 199 198
4 178 179 200 199
4 179 180 201 200
4 180 181 202 201
4 181 182 203 202
4 182 183 204 203
4 183 184 205 204
4 184 185 206 205
4 185 186 207 206
4 186 187 208 207
4 187 188 209 208
4 189 190 211 210
4 190 191 212 211
4 191 192 213 212
4 192 193 214 213
4 193 194 215 214
4 194 195 216 215
4 195 196 217 216
4 196 197 218 217
4 197 198 219 218
4 198 199 220 219
4 199 200 221 220
4 200 201 222 221
4 201 202 223 222
4 202 203 224 223
4 203 204 225 224
4 204 205 226 225
4 205 206 227 226
4 206 207 228 227
4 207 208 229 228
4 208 209 230 229
4 210 211 232 231
4 211 212 233 232
4 212 213 234 233
4 213 214 235 234
4 214 215 236 235
4 215 216 237 236
4 216 217 238 237
4 217 218 239 238
4 218 219 240 239
4 219 220 241 240
4 220 221 242 241
4 221 222 243 242
4 222 223 244 243
4 223 224 245 244
4 224 225 246 245
4 225 226 247 246
4 226 227 248 247
4 227 228 249 248
4 228 229 250 249
4 229 230 251 250
4 231 232 253 252
4 232 233 254 253
4 233 234 255 254
4 234 235 256 255
4 235 236 257 256
4 236 237 258 257
4 237 238 259 258
4 238 239 260 259
4 239 240 261 260
4 240 241 262 261
4 241 242 263 262
4 242 243 264 263
4 243 244 265 264
4 244 245 266 265
4 245 246 267 266
4 246 247 268 267
4 247 248 269 268
4 248 249 270 269
4 249 250 271 270
4 250 251 272 271
4 252 253 274 273
4 253 254 275 274
4 254 255 276 275
4 255 256 277 276
4 256 257 278 277
4 257 258 279 278
4 258 259 280 279
4 259 260 281 280
4 260 261 282 281
4 261 262 283 282
4 262 263 284 283
4 263 264 285 284
4 264 265 286 285
4 265 266 287 286
4 266 267 288 287
4 267 268 289 288
4 268 269 290 289
4 269 270 291 290
4 270 271 292 291
4 271 272 293 292
4 273 274 295 294
4 274 275 296 295
4 275 276 297 296
4 276 277 298 297
4 277 278 299 298
4 278 279 300 299
4 279 280 301 300
4 280 281 302 301
4 281 282 303 302
4 282 283 304 303
4 283 284 305 304
4 284 285 306 305
4 285 286 307 306
4 286 287 308 307
4 287 288 309 308
4 288 289 310 309
4 289 290 311 310
4 290 291 312 311
4 291 292 313 312
4 292 293 314 313
4 294 295 316 315
4 295 296 317 316
4 296 297 318 317
4 297 298 319 318
4 298 299 320 319
4 299 300 321 320
4 300 301 322 321
4 301 302 323 322
4 302 303 324 323
4 303 304 325 324
4 304 305 326 325
4 305 306 327 326
4 306 307 328 327
4 307 308 329 328
4 308 309 330 329
4 309 310 331 330
4 310 311 332 331
4 311 312 333 332
4 312 313 334 333
4 313 314 335 334
4 315 316 337 336
4 316 317 338 337
4 317 318 339 338
4 318 319 340 339
4 319 320 341 340
4 320 321 342 341
4 321 322 343 342
4 322 323 344 343
4 323 324 345 344
4 324 325 346 345
4 325 326 347 346
4 326 327 348 347
4 327 328 349 348
4 328 329 350 349
4 329 330 351 350
4 330 331 352 351
4 331 332 353 352
4 332 333 354 353
4 333 334 355 354
4 334 335 356 355
4 336 337 358 357
4 337 338 359 358
4 338 339 360 359
4 339 340 361 360
4 340 341 362 361
4 341 342 363 362
4 342 343 364 363
4 343 344 365 364
4 344 345 366 365
4 345 346 367 366
4 346 347 368 367
4 347 348 369 368
4 348 349 370 369
4 349 350 371 370
4 350 351 372 371
4 351 352 373 372
4 352 353 374 373
4 353 354 375 374
4 354 355 376 375
4 355 356 377 376
4 357 358 379 378
4 358 359 380 379
4 359 360 381 380
4 360 361 382 381
4 361 362 383 382
4 362 363 384 383
4 363 364 385 384
4 364 365 386 385
4 365 366 387 386
4 366 367 388 387
4 367 368 389 388
4 368 369 390 389
4 369 370 391 390
4 370 371 392 391
4 371 372 393 392
4 372 373 394 393
4 373 374 395 394
4 374 375 396 395
4 375 376 397 396
4 376 377 398 397
4 378 379 400 399
4 379 380 401 400
4 380 381 402 401
4 381 382 403 402
4 382 383 404 403
4 383 384 405 404
4 384 385 406 405
4 385 386 407 406
4 386 387 408 407
4 387 388 409 408
4 388 389 410 409
4 389 390 411 410
4 390 391 412 411
4 391 392 413 412
4 392 393 414 413
4 393 394 415 414
4 394 395 416 415
4 395 396 417 416
4 396 397 418 417
4 397 398 419 418
4 399 400 421 420
4 400 401 422 421
4 401 402 423 422
4 402 403 424 423
4 403 404 425 424
4 404 405 426 425
4 405 406 427 426
4 406 407 428 427
4 407 408 429 428
4 408 409 430 429
4 409 410 431 430
4 410 411 432 431
4 411 412 433 432
4 412 413 434 433
4 413 414 435 434
4 414 415 436 435
4 415 416 437 436
4 416 417 438 437
4 417 418 439 438
4 418 419 440 439
CELL_TYPES 400
9
9
9
9
9
9
9
9
9
9
9
9
9
9
9
9
9
9
9
9
9
9
9
9
9
9
9
9
9
9
9
9
9
9
9
9
9
9
9
9
9
9
9
9
9
9
9
9
9
9
9
9
9
9
9
9
9
9
9
9
9
9
9
9
9
9
9
9
9
9
9
9
9
9
9
9
9
9
9
9
9
9
9
9
9
9
9
9
9
9
9
9
9
9
9
9
9
9
9
9
9
9
9
9
9
9
9
9
9
9
9
9
9
9
9
9
9
9
9
9
9
9
9
9
9
9
9
9
9
9
9
9
9
9
9
9
9
9
9
9
9
9
9
9
9
9
9
9
9
9
9
9
9
9
9
9
9
9
9
9
9
9
9
9
9
9
9
9
9
9
9
9
9
9
9
9
9
9
9
9
9
9
9
9
9
9
9
9
9
9
9
9
9
9
9
9
9
9
9
9
9
9
9
9
9
9
9
9
9
9
9
9
9
9
9
9
9
9
9
9
9
9
9
9
9
9
9
9
9
9
9
9
9
9
9
9
9
9
9
9
9
9
9
9
9
9
9
9
9
9
9
9
9
9
9
9
9
9
9
9
9
9
9
9
9
9
9
9
9
9
9
9
9
9
9
9
9
9
9
9
9
9
9
9
9
9
9
9
9
9
9
9
9
9
9
9
9
9
9
9
9
9
9
9
9
9
9
9
9
9
9
9
9
9
9
9
9
9
9
9
9
9
9
9
9
9
9
9
9
9
9
9
9
9
9
9
9
9
9
9
9
9
9
9
9
9
9
9
9
9
9
9
9
9
9
9
9
9
9
9
9
9
9
9
9
9
9
9
9
9
9
9
9
9
9
9
9
9
9
9
9
9
9
9
9
9
9
9
9
9
9
9
9
9
9
9
9
9
9
9
POINT_DATA 441
VECTORS displacement float
1.20052e-15 0 0
3.34775e-15 0 0
-1.22074e-14 0 0
2.10083e-14 0 0
-4.57291e-14 0 0
6.70248e-14 0 0
-1.36518e-13 0 0
1.80745e-13 0 0
-3.63193e-13 0 0
4.45946e-13 0 0
-9.04331e-13 0 0
1.04936e-12 0 0
-2.0813e-12 0 0
2.45042e-12 0 0
-4.26224e-12 0 0
6.14567e-12 0 0
-6.71482e-12 0 0
1.83927e-11 0 0
-2.48524e-12 0 0
6.99139e-11 0 0
3.57739e-11 0 0
-5.44894e-15 -2.04894e-14 0
1.40877e-14 1.77361e-14 0
-3.51192e-14 -3.59882e-14 0
6.14529e-14 5.87343e-14 0
-1.17088e-13 -8.79975e-14 0
1.78895e-13 1.54319e-13 0
-3.21278e-13 -2.13839e-13 0
4.48865e-13 3.84543e-13 0
-8.14679e-13 -4.90767e-13 0
1.04225e-12 9.14713e-13 0
-1.96714e-12 -1.05858e-12 0
2.24161e-12 2.08922e-12 0
-4.60071e-12 -2.1424e-12 0
4.49886e-12 4.53391e-12 0
-1.05596e-11 -4.09235e-12 0
8.47382e-12 9.04829e-12 0
-2.39663e-11 -7.61582e-12 0
1.54088e-11 1.46187e-11 0
-5.22304e-11 -1.52219e-11 0
2.46911e-11 7.15063e-12 0
-8.38887e-11 -4.16792e-11 0
-7.52275e-15 -4.84669e-14 0
3.10598e-14 5.46251e-14 0
-7.13769e-14 -9.10147e-14 0
1.26139e-13 1.35904e-13 0
-2.23463e-13 -2.10111e-13 0
3.4551e-13 3.2619e-13 0
-5.8057e-13 -4.90465e-13 0
8.43266e-13 7.57377e-13 0
-1.40692e-12 -1.10199e-12 0
1.90402e-12 1.70146e-12 0
-3.24987e-12 -2.36356e-12 0
4.04752e-12 3.69028e-12 0
-7.30789e-12 -4.77252e-12 0
8.03183e-12 7.7967e-12 0
-1.60627e-11 -8.95983e-12 0
1.43581e-11 1.64824e-11 0
-3.431e-11 -1.56067e-11 0
2.01448e-11 3.78098e-11 0
-6.95197e-11 -2.88751e-11 0
1.07523e-11 1.08775e-10 0
-1.47403e-10 -8.42993e-11 0
-1.78593e-14 -1.07474e-13 0
6.02953e-14 1.18289e-13 0
-1.3229e-13 -1.93401e-13 0
2.31833e-13 2.85047e-13 0
-3.91836e-13 -4.34336e-13 0
6.12544e-13 6.62765e-13 0
-9.82711e-13 -9.84602e-13 0
1.44477e-12 1.5002e-12 0
-2.26394e-12 -2.176e-12 0
3.16889e-12 3.29539e-12 0
-4.97961e-12 -4.6245e-12 0
6.52607e-12 7.02662e-12 0
-1.04339e-11 -9.5128e-12 0
1.23449e-11 1.4767e-11 0
-2.07833e-11 -1.92516e-11 0
2.05146e-11 3.1355e-11 0
-3.93864e-11 -3.93447e-11 0
2.71781e-11 6.78094e-11 0
-7.48795e-11 -7.7488e-11 0
2.21882e-11 1.28597e-10 0
-1.51765e-10 -8.21803e-11 0
-2.85284e-14 -2.05612e-13 0
1.06145e-13 2.2978e-13 0
-2.24263e-13 -3.70158e-13 0
3.86573e-13 5.38543e-13 0
-6.38902e-13 -8.12462e-13 0
9.87252e-13 1.21677e-12 0
-1.51956e-12 -1.80633e-12 0
2.21311e-12 2.69364e-12 0
-3.3304e-12 -3.91493e-12 0
4.63091e-12 5.77735e-12 0
-6.83869e-12 -8.22642e-12 0
8.91561e-12 1.2087e-11 0
-1.31411e-11 -1.67777e-11 0
1.56425e-11 2.46445e-11 0
-2.37576e-11 -3.28483e-11 0
2.43803e-11 4.80821e-11 0
-4.14645e-11 -5.83766e-11 0
3.2601e-11 8.32171e-11 0
-7.34744e-11 -7.91452e-11 0
2.91651e-11 1.15997e-10 0
-1.35881e-10 -7.82811e-11 0
-5.28859e-14 -3.55999e-13 0
1.69127e-13 4.10906e-13 0
-3.48569e-13 -6.47428e-13 0
5.92718e-13 9.31134e-13 0
-9.48223e-13 -1.3891e-12 0
1.42073e-12 2.05441e-12 0
-2.12081e-12 -3.01145e-12 0
3.03272e-12 4.40003e-12 0
-4.36824e-12 -6.32091e-12 0
5.8946e-12 9.11105e-12 0
-8.27686e-12 -1.27584e-11 0
1.05435e-11 1.80097e-11 0
-1.47274e-11 -2.42263e-11 0
1.72691e-11 3.3182e-11 0
-2.48644e-11 -4.16432e-11 0
2.56101e-11 5.44335e-11 0
-4.11167e-11 -6.04392e-11 0
3.27529e-11 7.66622e-11 0
-6.86775e-11 -7.314e-11 0
2.94606e-11 1.0914e-10 0
-1.2443e-10 -8.35703e-11 0
-6.90572e-14 -5.82673e-13 0
2.48815e-13 6.67911e-13 0
-4.95578e-13 -1.03554e-12 0
8.157e-13 1.4696e-12 0
-1.25067e-12 -2.16131e-12 0
1.83806e-12 3.12209e-12 0
-2.66305e-12 -4.47092e-12 0
3.66302e-12 6.36485e-12 0
-5.04227e-12 -8.89247e-12 0
6.61357e-12 1.23077e-11 0
-8.95867e-12 -1.65054e-11 0
1.11287e-11 2.19869e-11 0
-1.49845e-11 -2.78742e-11 0
1.72536e-11 3.54354e-11 0
-2.41231e-11 -4.15623e-11 0
2.45299e-11 5.11756e-11 0
-3.85242e-11 -5.55e-11 0
3.05367e-11 7.2609e-11 0
-6.43237e-11 -7.35101e-11 0
2.86779e-11 1.10842e-10 0
-1.18408e-10 -9.16373e-11 0
-1.17274e-13 -8.28239e-13 0
3.25508e-13 9.98528e-13 0
-6.30159e-13 -1.49122e-12 0
9.91793e-13 2.08645e-12 0
-1.49838e-12 -2.97259e-12 0
2.13837e-12 4.16331e-12 0
-2.93723e-12 -5.78695e-12 0
3.8979e-12 7.92249e-12 0
-5.24514e-12 -1.05735e-11 0
6.73783e-12 1.38965e-11 0
-8.84518e-12 -1.77066e-11 0
1.07328e-11 2.23417e-11 0
-1.41514e-11 -2.70125e-11 0
1.61233e-11 3.31099e-11 0
-2.23219e-11 -3.84431e-11 0
2.26748e-11 4.8169e-11 0
-3.57914e-11 -5.47059e-11 0
2.89683e-11 7.32165e-11 0
-6.10058e-11 -7.67377e-11 0
2.87338e-11 1.13373e-10 0
-1.13191e-10 -9.88785e-11 0
-1.0576e-13 -1.12204e-12 0
3.93357e-13 1.31012e-12 0
-7.06132e-13 -1.91217e-12 0
1.1118e-12 2.58028e-12 0
-1.6115e-12 -3.55602e-12 0
2.1557e-12 4.82483e-12 0
-2.89852e-12 -6.42665e-12 0
3.8526e-12 8.37737e-12 0
-5.07191e-12 -1.07035e-11 0
6.31423e-12 1.35396e-11 0
-8.12077e-12 -1.67217e-11 0
9.81427e-12 2.06662e-11 0
-1.29432e-11 -2.49469e-11 0
1.48107e-11 3.11142e-11 0
-2.05949e-11 -3.73594e-11 0
2.12733e-11 4.803e-11 0
-3.36923e-11 -5.57953e-11 0
2.80901e-11 7.41692e-11 0
-5.79237e-11 -7.94488e-11 0
2.91726e-11 1.15079e-10 0
-1.07368e-10 -1.05269e-10 0
-1.88334e-13 -1.21178e-12 0
4.01284e-13 1.5579e-12 0
-7.46697e-13 -2.10643e-12 0
1.1051e-12 2.78935e-12 0
-1.47788e-12 -3.72697e-12 0
2.02826e-12 4.84035e-12 0
-2.80265e-12 -6.17291e-12 0
3.57972e-12 7.85151e-12 0
-4.50848e-12 -9.89908e-12 0
5.60918e-12 1.24205e-11 0
-7.35265e-12 -1.53938e-11 0
9.00686e-12 1.93632e-11 0
-1.19095e-11 -2.40438e-11 0
1.37691e-11 3.0685e-11 0
-1.92447e-11 -3.74977e-11 0
2.02887e-11 4.81544e-11 0
-3.18577e-11 -5.64475e-11 0
2.73627e-11 7.45592e-11 0
-5.47671e-11 -8.17033e-11 0
2.96199e-11 1.16284e-10 0
-1.01199e-10 -1.11307e-10 0
-7.65684e-14 -1.35215e-12 0
4.22345e-13 1.54209e-12 0
-6.82613e-13 -2.07995e-12 0
9.2833e-13 2.69325e-12 0
-1.40383e-12 -3.43891e-12 0
1.99036e-12 4.34418e-12 0
-2.45499e-12 -5.59927e-12 0
2.98562e-12 7.20455e-12 0
-3.98229e-12 -9.12197e-12 0
5.21636e-12 1.159e-11 0
-6.83617e-12 -1.47269e-11 0
8.31771e-12 1.89396e-11 0
-1.09983e-11 -2.38538e-11 0
1.29678e-11 3.04577e-11 0
-1.81292e-11 -3.73431e-11 0
1.94743e-11 4.7852e-11 0
-3.00119e-11 -5.68415e-11 0
2.66476e-11 7.47773e-11 0
-5.14511e-11 -8.38058e-11 0
3.01857e-11 1.17319e-10 0
-9.48684e-11 -1.17211e-10 0
-2.50042e-13 -1.01458e-12 0
3.40091e-13 1.49912e-12 0
-5.42833e-13 -1.86186e-12 0
9.74458e-13 2.35395e-12 0
-1.39335e-12 -2.99511e-12 0
1.50262e-12 4.02826e-12 0
-1.90683e-12 -5.26462e-12 0
2.8357e-12 6.70951e-12 0
-3.94247e-12 -8.60737e-12 0
4.85544e-12 1.12417e-11 0
-6.1585e-12 -1.45165e-11 0
7.65833e-12 1.86629e-11 0
-1.03617e-11 -2.34533e-11 0
1.24081e-11 2.99118e-11 0
-1.70756e-11 -3.70087e-11 0
1.8594e-11 4.75467e-11 0
-2.80335e-11 -5.72734e-11 0
2.59997e-11 7.49528e-11 0
-4.80855e-11 -8.58899e-11 0
3.12267e-11 1.18171e-10 0
-8.80992e-11 -1.23193e-10 0
6.93451e-14 -1.24493e-12 0
3.10446e-13 1.20758e-12 0
-6.63183e-13 -1.62058e-12 0
8.85191e-13 2.08979e-12 0
-7.1499e-13 -2.99115e-12 0
1.21668e-12 3.8561e-12 0
-2.29821e-12 -4.81633e-12 0
2.97049e-12 6.33754e-12 0
-3.38082e-12 -8.47795e-12 0
4.14349e-12 1.11027e-11 0
-5.78761e-12 -1.41313e-11 0
7.45849e-12 1.80834e-11 0
-9.94318e-12 -2.28792e-11 0
1.15595e-11 2.94952e-11 0
-1.58983e-11 -3.67922e-11 0
1.74238e-11 4.74319e-11 0
-2.64418e-11 -5.75962e-11 0
2.53367e-11 7.52235e-11 0
-4.51992e-11 -8.78327e-11 0
3.20637e-11 1.19276e-10 0
-8.1075e-11 -1.29437e-10 0
-4.3267e-13 -5.19328e-13 0
3.26137e-13 1.24426e-12 0
-4.57994e-13 -1.48476e-12 0
1.31041e-13 2.29765e-12 0
-1.04886e-12 -2.70263e-12 0
2.15843e-12 3.29481e-12 0
-2.11176e-12 -4.64091e-12 0
1.90999e-12 6.46386e-12 0
-2.87998e-12 -8.30581e-12 0
4.36631e-12 1.05379e-11 0
-5.95285e-12 -1.34868e-11 0
6.8263e-12 1.76922e-11 0
-8.95757e-12 -2.26136e-11 0
1.02262e-11 2.9379e-11 0
-1.52683e-11 -3.64511e-11 0
1.60667e-11 4.74937e-11 0
-2.62776e-11 -5.7438e-11 0
2.29306e-11 7.63456e-11 0
-4.43164e-11 -8.90806e-11 0
2.88601e-11 1.22334e-10 0
-7.69526e-11 -1.34682e-10 0
4.54847e-13 -1.5203e-12 0
2.64597e-13 8.98811e-13 0
1.21751e-13 -1.79874e-12 0
1.36364e-12 1.64586e-12 0
-2.116e-12 -2.12908e-12 0
8.52813e-13 3.5902e-12 0
-6.64322e-13 -4.99118e-12 0
2.24524e-12 6.03191e-12 0
-3.91398e-12 -7.49803e-12 0
4.10051e-12 1.01601e-11 0
-4.76391e-12 -1.34395e-11 0
5.19031e-12 1.7805e-11 0
-8.60704e-12 -2.22034e-11 0
9.33657e-12 2.91646e-11 0
-1.59648e-11 -3.56385e-11 0
1.35535e-11 4.80386e-11 0
-2.71904e-11 -5.68229e-11 0
1.59242e-11 7.9201e-11 0
-4.79504e-11 -8.81209e-11 0
1.3421e-11 1.29599e-10 0
-8.46612e-11 -1.33126e-10 0
-9.39185e-13 2.28385e-13 0
-1.62434e-13 1.53662e-12 0
-1.79259e-12 -7.00653e-13 0
1.49302e-12 1.52046e-12 0
1.02281e-12 -3.17979e-12 0
-1.5912e-13 3.8711e-12 0
-2.69792e-12 -3.94057e-12 0
3.16404e-12 5.32403e-12 0
-2.17104e-12 -7.79555e-12 0
1.64381e-12 1.0742e-11 0
-4.07192e-12 -1.33062e-11 0
5.26828e-12 1.7289e-11 0
-9.88257e-12 -2.1128e-11 0
7.52667e-12 2.9198e-11 0
-1.66007e-11 -3.46434e-11 0
6.73252e-12 4.98624e-11 0
-3.00121e-11 -5.46721e-11 0
1.91775e-12 8.32701e-11 0
-5.80207e-11 -8.17204e-11 0
-1.9161e-11 1.38422e-10 0
-1.16019e-10 -1.12351e-10 0
9.3952e-13 -2.32333e-12 0
1.46765e-12 -5.3439e-14 0
4.86345e-14 -1.66005e-12 0
-3.42404e-12 3.25413e-12 0
-2.21075e-13 -2.70028e-12 0
3.56073e-12 2.12721e-12 0
-1.39243e-12 -4.14602e-12 0
-1.35349e-12 6.8179e-12 0
-5.14244e-14 -8.3827e-12 0
3.0273e-12 9.85375e-12 0
-6.03272e-12 -1.20239e-11 0
5.32674e-12 1.65442e-11 0
-7.85527e-12 -2.1009e-11 0
3.42783e-12 2.95679e-11 0
-1.4371e-11 -3.38577e-11 0
-4.09578e-13 5.00763e-11 0
-3.53444e-11 -4.85774e-11 0
-1.80536e-11 8.44025e-11 0
-8.27294e-11 -6.07806e-11 0
-7.00747e-11 1.39656e-10 0
-1.791e-10 -5.53877e-11 0
-8.58721e-13 1.30636e-12 0
-1.30928e-12 2.26345e-12 0
5.15705e-12 -3.17734e-12 0
3.49167e-12 7.52675e-13 0
-4.96223e-12 -3.99478e-13 0
-2.32671e-12 4.245e-12 0
3.77979e-12 -6.07022e-12 0
1.57966e-12 5.54227e-12 0
-6.05661e-12 -5.63911e-12 0
5.12723e-12 8.3717e-12 0
-3.51122e-12 -1.21221e-11 0
1.08918e-12 1.70327e-11 0
-4.80635e-12 -2.0574e-11 0
4.40297e-12 2.66731e-11 0
-1.67385e-11 -2.89667e-11 0
9.75846e-12 3.94535e-11 0
-4.00303e-11 -3.60666e-11 0
-2.74155e-12 6.03969e-11 0
-9.96785e-11 -2.55493e-11 0
-1.03846e-10 1.06797e-10 0
-2.52245e-10 4.45636e-11 0
-5.59674e-14 -2.9444e-12 0
-2.50747e-12 1.13471e-12 0
-1.21905e-11 2.97053e-12 0
5.76342e-12 -8.93554e-13 0
3.41318e-12 -3.90267e-12 0
3.91772e-12 1.97172e-12 0
-1.41148e-11 9.64593e-13 0
1.50177e-11 -1.39445e-13 0
-1.127e-11 -3.06188e-12 0
9.33984e-12 6.11263e-12 0
-1.32993e-11 -7.42008e-12 0
1.7517e-11 9.03099e-12 0
-2.81967e-11 -8.55331e-12 0
2.89258e-11 1.19633e-11 0
-4.48936e-11 -9.31056e-12 0
3.06401e-11 1.70737e-11 0
-5.87352e-11 -6.31265e-12 0
2.16636e-11 1.60844e-11 0
-6.34666e-11 1.13542e-11 0
2.13139e-11 -1.88435e-11 0
-2.15071e-10 1.38262e-10 0
2.21775e-13 1.37613e-12 0
1.7089e-11 -4.88639e-12 0
-8.38558e-12 2.75469e-12 0
-2.163e-12 2.93795e-12 0
-1.00466e-11 1.22841e-12 0
2.82123e-11 -7.68231e-12 0
-3.10426e-11 7.96961e-12 0
2.3793e-11 -3.64673e-12 0
-2.59009e-11 2.44854e-12 0
4.5226e-11 -7.61151e-12 0
-7.61257e-11 1.70544e-11 0
1.08779e-10 -2.72133e-11 0
-1.4156e-10 3.76894e-11 0
1.68603e-10 -4.69727e-11 0
-2.0739e-10 6.24286e-11 0
2.20642e-10 -7.15639e-11 0
-2.9135e-10 1.07687e-10 0
2.2909e-10 -1.00449e-10 0
-4.0743e-10 1.97302e-10 0
1.04271e-10 -1.19112e-10 0
-1.31563e-10 1.75527e-10 0
2.065e-13 -1.89132e-12 0
-2.98693e-11 1.11682e-11 0
5.85075e-11 -2.44782e-11 0
2.20158e-11 -6.89649e-12 0
-1.60729e-11 6.28343e-12 0
-8.56101e-11 3.34601e-11 0
1.12055e-10 -4.51967e-11 0
-5.32239e-11 2.30746e-11 0
3.03551e-11 -1.31315e-11 0
-9.61158e-11 3.61743e-11 0
2.03603e-10 -7.46246e-11 0
-3.01028e-10 1.08462e-10 0
3.80026e-10 -1.33893e-10 0
-4.5176e-10 1.5427e-10 0
5.35297e-10 -1.76221e-10 0
-6.20346e-10 1.94941e-10 0
7.21104e-10 -2.16574e-10 0
-7.91008e-10 2.22821e-10 0
8.27971e-10 -2.19125e-10 0
-9.07696e-10 2.36191e-10 0
-2.02729e-10 2.11354e-10 0
CELL_DATA 400
VECTORS stress float
0.0198047 0.0920834 0.00965951
-0.0162014 -0.125929 -0.0523837
0.0193303 0.219258 0.103281
-0.0177043 -0.335974 -0.197617
0.0284254 0.554592 0.339084
-0.0377495 -0.840976 -0.574994
0.0817366 1.37299 0.920632
-0.152403 -2.01825 -1.48893
0.25423 3.24355 2.29873
-0.561625 -4.61535 -3.60955
0.668598 7.29421 5.41363
-1.97811 -10.1295 -8.27473
1.27773 15.4285 12.1921
-6.69728 -21.4486 -18.0926
0.388152 29.7292 26.6411
-22.4692 -44.2937 -37.9004
-12.7045 46.2947 57.74
-73.2631 -89.2254 -76.145
-94.6728 22.0151 125.954
-215.26 -174.617 -136.717
0.0883034 0.354184 0.0245407
-0.0842389 -0.487565 -0.101104
0.113191 0.779791 0.208051
-0.144922 -1.18608 -0.397677
0.234378 1.8758 0.656015
-0.348851 -2.85205 -1.12079
0.616402 4.46602 1.71587
-0.908936 -6.61396 -2.84436
1.62072 10.246 4.13693
-2.34841 -14.7064 -6.77301
4.12743 22.5754 9.40122
-5.76776 -31.1666 -15.4227
9.78144 47.5618 20.4306
-13.4627 -62.8975 -33.697
21.2499 95.8426 42.7279
-30.5443 -122.214 -70.1057
41.209 187.785 86.5778
-75.0579 -246.345 -133.935
80.5027 395.217 171.354
-265.79 -640.674 -213.849
0.204994 0.846823 0.0353882
-0.215818 -1.15688 -0.18873
0.282116 1.76909 0.392118
-0.380855 -2.65849 -0.720984
0.594385 4.07898 1.19764
-0.889069 -6.15095 -1.96621
1.45217 9.34944 3.05449
-2.19542 -13.8779 -4.8061
3.66428 20.8601 7.13844
-5.36448 -30.23 -11.0298
8.90193 44.9511 15.7529
-12.5 -63.4568 -24.1072
20.9367 94.2788 32.696
-28.2206 -129.72 -50.0465
48.5099 196.162 62.8322
-63.7095 -264.579 -97.8183
114.669 417.853 107.11
-149.326 -551.024 -177.168
268.564 901.429 145.891
-304.72 -1055.84 -294.28
0.434858 1.75792 0.0540551
-0.463321 -2.383 -0.320657
0.617743 3.59985 0.665273
-0.861505 -5.35479 -1.20498
1.29863 8.08517 1.98462
-1.95709 -12.0837 -3.18515
3.1106 18.1265 4.85915
-4.76317 -26.7453 -7.44789
7.53175 39.5855 10.9029
-11.2623 -57.3446 -16.2799
17.7656 84.0116 22.7756
-25.9808 -119.558 -33.2195
40.8898 173.995 43.9897
-57.9657 -242.649 -63.0569
91.0892 351.11 77.3153
-122.666 -472.882 -110.501
188.891 668.969 121.444
-224.568 -824.686 -182.658
324.676 1085.04 176.466
-297.848 -1086.41 -321.896
0.806434 3.29538 0.0739727
-0.908436 -4.48402 -0.490828
1.22484 6.68431 1.029
-1.70989 -9.83675 -1.83804
2.55827 14.6665 2.96707
-3.89738 -21.7126 -4.61726
6.02789 32.0596 6.90942
-9.10437 -46.7428 -10.2683
13.9724 67.9993 14.6304
-20.8346 -97.3571 -20.908
31.5183 139.186 28.3822
-45.4499 -194.208 -39.4373
66.8884 271.065 50.7384
-91.7248 -363.563 -69.2397
129.415 488.367 83.498
-162.766 -610.941 -115.685
215.826 772.545 129.279
-237.827 -864.147 -193.374
311.089 1051.86 188.88
-305.537 -1074.49 -313.847
1.43503 5.72228 0.0602126
-1.62088 -7.73029 -0.679356
2.19443 11.3697 1.42908
-3.08883 -16.5362 -2.4908
4.62459 24.2776 3.91375
-6.8818 -35.2682 -5.94967
10.2917 50.9491 8.66889
-15.2579 -72.7171 -12.3869
22.6438 102.877 17.0402
-32.5326 -142.698 -23.5071
46.4667 195.607 31.0424
-63.5402 -260.628 -41.8393
86.7287 342.656 52.848
-110.928 -431.502 -70.9051
143.254 538.227 85.685
-168.871 -631.772 -117.708
211.719 759.15 132.828
-235.856 -846.944 -190.396
310.624 1054.84 186.404
-330.545 -1135.73 -303.589
2.22998 9.01435 0.0437164
-2.64084 -12.1636 -0.809909
3.57164 17.5673 1.73355
-5.04706 -25.0801 -2.95796
7.27771 35.8628 4.59351
-10.4826 -50.7198 -6.77792
15.2821 71.1479 9.50017
-21.8302 -98.0836 -13.1629
30.6172 133.037 17.7728
-41.5662 -176.31 -24.0758
55.8697 229.752 31.3186
-72.0727 -290.68 -41.7285
92.5595 362.499 52.5697
-112.743 -436.672 -70.362
141.096 528.702 84.8615
-166.008 -618.075 -115.305
212.73 758.141 128.434
-245.56 -876.579 -184.144
328.274 1113.97 183.013
-359.601 -1232.57 -300.553
3.32019 12.9509 -0.0970311
-3.8288 -17.1824 -0.834772
5.19529 24.2115 1.83591
-7.03565 -33.5362 -3.17014
9.82884 46.5044 4.77775
-13.8948 -63.6821 -6.7792
19.3068 85.8298 9.40217
-25.9246 -113.256 -13.0423
34.4412 147.071 17.4825
-44.765 -187.084 -23.4004
57.7043 234.676 30.3066
-71.9495 -288.16 -40.3913
90.6194 353.315 50.9164
-110.615 -426.242 -67.7988
141.105 525.143 81.378
-170.83 -631.46 -110.383
222.911 790.766 124.384
-261.537 -930.593 -180.435
349.582 1184.56 182.743
-388.074 -1330.74 -299.521
4.05838 16.3501 -0.139732
-4.97896 -21.5275 -0.712214
6.38552 29.2269 1.81387
-8.49627 -39.3565 -3.00259
11.7558 52.8305 4.40413
-15.6598 -69.4681 -6.44149
20.3681 89.975 9.14702
-26.5057 -115.098 -12.489
34.618 145.841 16.4501
-44.1324 -182.187 -22.0449
56.1278 226.714 28.7954
-70.291 -280.055 -38.4368
90.2296 349.367 48.3456
-112.949 -431.431 -64.3481
146.547 541.54 77.9163
-179.695 -660.242 -106.931
234.575 829.561 122.512
-277.721 -984.787 -178.015
370.12 1252.9 183.231
-416.978 -1428.19 -297.87
4.90266 18.5694 -0.399169
-5.4297 -23.6255 -0.65536
6.98617 31.2852 1.53798
-9.338 -40.9855 -2.60413
11.877 52.9228 4.2537
-14.9387 -67.7472 -6.33056
19.8108 86.9342 8.44287
-26.1849 -110.73 -11.2493
33.7613 140.035 15.2254
-42.8455 -176.268 -20.8579
55.4928 223.209 27.2495
-71.3643 -281.637 -36.1695
93.2012 357.139 45.7588
-117.709 -445.829 -61.6387
152.77 561.596 75.869
-188.198 -688.294 -104.604
245.797 866.571 121.14
-293.875 -1038.64 -175.342
391.147 1322.21 183.671
-447.033 -1529.19 -295.613
4.39703 18.2852 -0.163181
-5.57422 -23.5798 -0.382794
7.14212 30.3435 1.35536
-8.47042 -38.5606 -2.77365
10.5877 49.6279 4.17759
-14.9208 -64.8255 -5.26364
20.1402 83.7768 7.18038
-25.4438 -106.907 -10.6131
32.679 137.054 14.7438
-43.0738 -176.295 -19.6387
57.2956 226.901 25.3534
-74.1674 -288.633 -34.1175
96.3446 366.712 44.1567
-121.825 -459.202 -59.9722
158.39 580.067 74.3433
-196.846 -716.351 -102.037
257.651 905.044 119.539
-310.987 -1095.42 -172.32
413.505 1395.22 184.566
-478.349 -1636.5 -293.262
4.93737 17.6974 -0.67706
-5.28675 -21.7955 -0.553478
5.89566 27.6501 1.66381
-7.64365 -36.3502 -2.38178
12.0063 48.8937 2.62317
-15.5801 -63.3363 -4.50056
18.5528 81.0858 7.70079
-24.3102 -105.684 -10.6695
33.8608 138.908 13.3768
-45.4023 -180.126 -17.8046
59.0514 231.247 24.1606
-75.6873 -293.984 -33.4018
98.4601 374.81 43.2121
-126.433 -472.894 -57.9963
164.675 600.519 72.1119
-207.168 -747.369 -98.9929
269.725 946.374 118.304
-330.009 -1156.63 -169.559
436.17 1473.44 186.636
-513.702 -1754.36 -290.079
3.28545 15.3383 0.256833
-4.47336 -20.26 -0.552526
6.05666 27.3244 0.784708
-10.3646 -37.4284 -0.726705
11.3586 47.1342 3.36521
-12.1206 -60.1746 -6.40026
18.1551 81.2206 7.36228
-27.3056 -108.907 -8.42019
35.9751 141.599 11.9565
-45.2759 -181.271 -18.0185
58.7078 233.42 24.3164
-77.6272 -299.946 -32.1934
102.478 386.035 40.5185
-132.951 -489.647 -55.1904
171.305 623.881 69.6744
-218.804 -780.398 -97.3289
280.212 991.649 117.445
-354.216 -1224.5 -167.011
456.599 1561.74 187.396
-561.441 -1890.06 -283.382
5.26898 16.4525 -1.13457
-4.95379 -20.7806 0.194803
8.89792 28.3654 -0.0295457
-6.3492 -33.1055 -3.92706
6.45103 43.5948 5.67573
-15.1064 -63.2594 -3.84141
23.3263 85.6747 4.07144
-27.2551 -108.797 -8.78177
32.7863 139.62 13.8593
-44.9711 -182.822 -17.8131
62.1312 240.589 21.0128
-83.2734 -310.544 -28.5822
106.963 399.593 37.5965
-138.741 -506.096 -54.7196
176.606 648.971 67.981
-231.415 -815.356 -97.0408
291.774 1046.85 111.446
-385.717 -1298.82 -163.624
472.199 1667.47 176.157
-629.68 -2036.88 -270.996
1.98655 14.4652 0.457003
-6.9499 -20.4471 -0.236575
0.938863 21.3634 5.07984
-3.47386 -32.5777 -3.60347
16.5865 52.4929 -1.27975
-20.4498 -67.1323 -1.04022
17.609 80.7718 7.78545
-22.4218 -105.888 -10.8773
36.6631 145.681 9.5923
-52.5632 -193.063 -11.641
67.3351 250.302 16.9561
-84.9424 -317.298 -29.2882
107.803 410.737 37.3768
-144.072 -521.899 -55.3847
183.255 680.773 60.1739
-249.636 -854.038 -92.5107
304.152 1110.65 92.6369
-418.278 -1361.99 -158.303
482.563 1774.03 137.549
-695.181 -2119.25 -263.008
7.09515 16.092 -0.943514
1.89324 -14.4326 -4.223
5.97513 29.6376 -2.32571
-22.8948 -48.4476 8.25127
15.8424 51.1074 -0.0383565
-6.77484 -56.9979 -8.16301
18.2244 84.4079 4.2289
-36.3671 -121.428 0.93713
46.9104 157.581 1.84502
-51.4023 -194.643 -12.9786
63.4829 249.926 20.7306
-82.5353 -321.229 -30.6513
116.001 428.567 29.0551
-151.177 -542.005 -46.9639
200.307 717.418 38.9803
-257.823 -870.276 -88.0053
311.505 1150.71 58.8665
-431.443 -1339.87 -164
453.84 1777.44 74.012
-693.303 -1947.77 -282.453
-0.748429 13.0144 1.16839
-12.2316 -32.5819 10.8433
30.2422 45.3565 -12.7058
-2.33942 -29.8569 -6.04989
-4.47445 37.517 8.92965
-24.1642 -75.3044 6.63856
41.0856 104.947 -10.6523
-34.5954 -118.612 -2.92576
30.0796 141.32 15.6758
-41.7561 -186.358 -19.7592
67.6396 257.103 14.5175
-93.8211 -336.494 -17.1467
128.067 439.749 16.9181
-148.301 -532.964 -45.4117
202.09 685.67 45.1076
-208.059 -776.977 -117.501
311.233 1034.68 65.8611
-291.631 -1035.71 -239.296
393.632 1483.35 4.45821
-458.203 -1192.96 -377.851
10.1065 24.8102 -8.93747
-21.9844 -22.1844 -2.03298
-33.4047 -9.73633 28.7985
16.357 -13.0876 -18.5226
28.1704 53.9381 -0.38883
-18.6716 -54.563 -14.5908
-11.5136 41.9879 42.365
14.1202 -56.7534 -53.9511
10.235 103.331 47.4584
-35.1272 -157.68 -43.6536
52.3264 212.912 48.6287
-60.274 -256.746 -74.5377
68.2977 313.522 98.7229
-76.9754 -355.692 -145.643
93.827 438.113 157.81
-101.411 -458.127 -219.368
151.244 559.365 181.49
-35.6192 -402.8 -300.951
315.772 536.453 96.7604
325.069 507.781 -653.244
0.897367 -9.71207 25.628
80.8405 67.5751 -68.0676
-36.644 -27.8199 45.3144
-20.0093 -27.5738 -12.8353
-30.3985 -22.9999 67.4503
100.538 97.1089 -141.576
-99.3108 -87.9435 152.756
57.9871 31.9005 -133.695
-44.2235 -17.3153 158.36
82.113 75.5287 -251.605
-139.361 -168.97 380.57
205.043 277.825 -525.525
-240.731 -365.456 651.467
291.334 490.268 -798.544
-305.863 -583.682 891.898
358.002 819.926 -1063.01
-439.653 -980.99 1069.73
404.85 1460.98 -1258.24
-865.37 -1844.12 1093.14
878.563 2328.69 -859.47
-23.601 25.8748 -22.8027
-100.359 -165.891 125.078
163.753 135.259 -77.9495
88.8011 82.2543 -91.9792
-70.2171 67.497 -47.159
-202.199 -366.138 274.778
262.473 353.432 -233.954
-99.1527 -175.737 76.2477
11.6175 193.768 -102.877
-110.334 -450.715 335.28
281.238 757.435 -610.046
-404.635 -981.768 824.549
477.282 1129.86 -996.894
-483.497 -1217 1158.62
537.592 1311.19 -1376.54
-431.415 -1255.55 1548.93
592.402 1298.97 -1868.52
-157.463 -746.365 1804.66
589.829 850.414 -2310.82
-774.625 1075.75 1022.13
