# vtk DataFile Version 3.0
STAP++ results
ASCII
DATASET UNSTRUCTURED_GRID
POINTS 10201 float
0 0.1 0
0 0.109 0
0 0.118 0
0 0.127 0
0 0.136 0
0 0.145 0
0 0.154 0
0 0.163 0
0 0.172 0
0 0.181 0
0 0.19 0
0 0.199 0
0 0.208 0
0 0.217 0
0 0.226 0
0 0.235 0
0 0.244 0
0 0.253 0
0 0.262 0
0 0.271 0
0 0.28 0
0 0.289 0
0 0.298 0
0 0.307 0
0 0.316 0
0 0.325 0
0 0.334 0
0 0.343 0
0 0.352 0
0 0.361 0
0 0.37 0
0 0.379 0
0 0.388 0
0 0.397 0
0 0.406 0
0 0.415 0
0 0.424 0
0 0.433 0
0 0.442 0
0 0.451 0
0 0.46 0
0 0.469 0
0 0.478 0
0 0.487 0
0 0.496 0
0 0.505 0
0 0.514 0
0 0.523 0
0 0.532 0
0 0.541 0
0 0.55 0
0 0.559 0
0 0.568 0
0 0.577 0
0 0.586 0
0 0.595 0
0 0.604 0
0 0.613 0
0 0.622 0
0 0.631 0
0 0.64 0
0 0.649 0
0 0.658 0
0 0.667 0
0 0.676 0
0 0.685 0
0 0.694 0
0 0.703 0
0 0.712 0
0 0.721 0
0 0.73 0
0 0.739 0
0 0.748 0
0 0.757 0
0 0.766 0
0 0.775 0
0 0.784 0
0 0.793 0
0 0.802 0
0 0.811 0
0 0.82 0
0 0.829 0
0 0.838 0
0 0.847 0
0 0.856 0
0 0.865 0
0 0.874 0
0 0.883 0
0 0.892 0
0 0.901 0
0 0.91 0
0 0.919 0
0 0.928 0
0 0.937 0
0 0.946 0
0 0.955 0
0 0.964 0
0 0.973 0
0 0.982 0
0 0.991 0
0 1 0
0.02 0.105 0
0.02 0.11395 0
0.02 0.1229 0
0.02 0.13185 0
0.02 0.1408 0
0.02 0.14975 0
0.02 0.1587 0
0.02 0.16765 0
0.02 0.1766 0
0.02 0.18555 0
0.02 0.1945 0
0.02 0.20345 0
0.02 0.2124 0
0.02 0.22135 0
0.02 0.2303 0
0.02 0.23925 0
0.02 0.2482 0
0.02 0.25715 0
0.02 0.2661 0
0.02 0.27505 0
0.02 0.284 0
0.02 0.29295 0
0.02 0.3019 0
0.02 0.31085 0
0.02 0.3198 0
0.02 0.32875 0
0.02 0.3377 0
0.02 0.34665 0
0.02 0.3556 0
0.02 0.36455 0
0.02 0.3735 0
0.02 0.38245 0
0.02 0.3914 0
0.02 0.40035 0
0.02 0.4093 0
0.02 0.41825 0
0.02 0.4272 0
0.02 0.43615 0
0.02 0.4451 0
0.02 0.45405 0
0.02 0.463 0
0.02 0.47195 0
0.02 0.4809 0
0.02 0.48985 0
0.02 0.4988 0
0.02 0.50775 0
0.02 0.5167 0
0.02 0.52565 0
0.02 0.5346 0
0.02 0.54355 0
0.02 0.5525 0
0.02 0.56145 0
0.02 0.5704 0
0.02 0.57935 0
0.02 0.5883 0
0.02 0.59725 0
0.02 0.6062 0
0.02 0.61515 0
0.02 0.6241 0
0.02 0.63305 0
0.02 0.642 0
0.02 0.65095 0
0.02 0.6599 0
0.02 0.66885 0
0.02 0.6778 0
0.02 0.68675 0
0.02 0.6957 0
0.02 0.70465 0
0.02 0.7136 0
0.02 0.72255 0
0.02 0.7315 0
0.02 0.74045 0
0.02 0.7494 0
0.02 0.75835 0
0.02 0.7673 0
0.02 0.77625 0
0.02 0.7852 0
0.02 0.79415 0
0.02 0.8031 0
0.02 0.81205 0
0.02 0.821 0
0.02 0.82995 0
0.02 0.8389 0
0.02 0.84785 0
0.02 0.8568 0
0.02 0.86575 0
0.02 0.8747 0
0.02 0.88365 0
0.02 0.8926 0
0.02 0.90155 0
0.02 0.9105 0
0.02 0.91945 0
0.02 0.9284 0
0.02 0.93735 0
0.02 0.9463 0
0.02 0.95525 0
0.02 0.9642 0
0.02 0.97315 0
0.02 0.9821 0
0.02 0.99105 0
0.02 1 0
0.04 0.11 0
0.04 0.1189 0
0.04 0.1278 0
0.04 0.1367 0
0.04 0.1456 0
0.04 0.1545 0
0.04 0.1634 0
0.04 0.1723 0
0.04 0.1812 0
0.04 0.1901 0
0.04 0.199 0
0.04 0.2079 0
0.04 0.2168 0
0.04 0.2257 0
0.04 0.2346 0
0.04 0.2435 0
0.04 0.2524 0
0.04 0.2613 0
0.04 0.2702 0
0.04 0.2791 0
0.04 0.288 0
0.04 0.2969 0
0.04 0.3058 0
0.04 0.3147 0
0.04 0.3236 0
0.04 0.3325 0
0.04 0.3414 0
0.04 0.3503 0
0.04 0.3592 0
0.04 0.3681 0
0.04 0.377 0
0.04 0.3859 0
0.04 0.3948 0
0.04 0.4037 0
0.04 0.4126 0
0.04 0.4215 0
0.04 0.4304 0
0.04 0.4393 0
0.04 0.4482 0
0.04 0.4571 0
0.04 0.466 0
0.04 0.4749 0
0.04 0.4838 0
0.04 0.4927 0
0.04 0.5016 0
0.04 0.5105 0
0.04 0.5194 0
0.04 0.5283 0
0.04 0.5372 0
0.04 0.5461 0
0.04 0.555 0
0.04 0.5639 0
0.04 0.5728 0
0.04 0.5817 0
0.04 0.5906 0
0.04 0.5995 0
0.04 0.6084 0
0.04 0.6173 0
0.04 0.6262 0
0.04 0.6351 0
0.04 0.644 0
0.04 0.6529 0
0.04 0.6618 0
0.04 0.6707 0
0.04 0.6796 0
0.04 0.6885 0
0.04 0.6974 0
0.04 0.7063 0
0.04 0.7152 0
0.04 0.7241 0
0.04 0.733 0
0.04 0.7419 0
0.04 0.7508 0
0.04 0.7597 0
0.04 0.7686 0
0.04 0.7775 0
0.04 0.7864 0
0.04 0.7953 0
0.04 0.8042 0
0.04 0.8131 0
0.04 0.822 0
0.04 0.8309 0
0.04 0.8398 0
0.04 0.8487 0
0.04 0.8576 0
0.04 0.8665 0
0.04 0.8754 0
0.04 0.8843 0
0.04 0.8932 0
0.04 0.9021 0
0.04 0.911 0
0.04 0.9199 0
0.04 0.9288 0
0.04 0.9377 0
0.04 0.9466 0
0.04 0.9555 0
0.04 0.9644 0
0.04 0.9733 0
0.04 0.9822 0
0.04 0.9911 0
0.04 1 0
0.06 0.115 0
0.06 0.12385 0
0.06 0.1327 0
0.06 0.14155 0
0.06 0.1504 0
0.06 0.15925 0
0.06 0.1681 0
0.06 0.17695 0
0.06 0.1858 0
0.06 0.19465 0
0.06 0.2035 0
0.06 0.21235 0
0.06 0.2212 0
0.06 0.23005 0
0.06 0.2389 0
0.06 0.24775 0
0.06 0.2566 0
0.06 0.26545 0
0.06 0.2743 0
0.06 0.28315 0
0.06 0.292 0
0.06 0.30085 0
0.06 0.3097 0
0.06 0.31855 0
0.06 0.3274 0
0.06 0.33625 0
0.06 0.3451 0
0.06 0.35395 0
0.06 0.3628 0
0.06 0.37165 0
0.06 0.3805 0
0.06 0.38935 0
0.06 0.3982 0
0.06 0.40705 0
0.06 0.4159 0
0.06 0.42475 0
0.06 0.4336 0
0.06 0.44245 0
0.06 0.4513 0
0.06 0.46015 0
0.06 0.469 0
0.06 0.47785 0
0.06 0.4867 0
0.06 0.49555 0
0.06 0.5044 0
0.06 0.51325 0
0.06 0.5221 0
0.06 0.53095 0
0.06 0.5398 0
0.06 0.54865 0
0.06 0.5575 0
0.06 0.56635 0
0.06 0.5752 0
0.06 0.58405 0
0.06 0.5929 0
0.06 0.60175 0
0.06 0.6106 0
0.06 0.61945 0
0.06 0.6283 0
0.06 0.63715 0
0.06 0.646 0
0.06 0.65485 0
0.06 0.6637 0
0.06 0.67255 0
0.06 0.6814 0
0.06 0.69025 0
0.06 0.6991 0
0.06 0.70795 0
0.06 0.7168 0
0.06 0.72565 0
0.06 0.7345 0
0.06 0.74335 0
0.06 0.7522 0
0.06 0.76105 0
0.06 0.7699 0
0.06 0.77875 0
0.06 0.7876 0
0.06 0.79645 0
0.06 0.8053 0
0.06 0.81415 0
0.06 0.823 0
0.06 0.83185 0
0.06 0.8407 0
0.06 0.84955 0
0.06 0.8584 0
0.06 0.86725 0
0.06 0.8761 0
0.06 0.88495 0
0.06 0.8938 0
0.06 0.90265 0
0.06 0.9115 0
0.06 0.92035 0
0.06 0.9292 0
0.06 0.93805 0
0.06 0.9469 0
0.06 0.95575 0
0.06 0.9646 0
0.06 0.97345 0
0.06 0.9823 0
0.06 0.99115 0
0.06 1 0
0.08 0.12 0
0.08 0.1288 0
0.08 0.1376 0
0.08 0.1464 0
0.08 0.1552 0
0.08 0.164 0
0.08 0.1728 0
0.08 0.1816 0
0.08 0.1904 0
0.08 0.1992 0
0.08 0.208 0
0.08 0.2168 0
0.08 0.2256 0
0.08 0.2344 0
0.08 0.2432 0
0.08 0.252 0
0.08 0.2608 0
0.08 0.2696 0
0.08 0.2784 0
0.08 0.2872 0
0.08 0.296 0
0.08 0.3048 0
0.08 0.3136 0
0.08 0.3224 0
0.08 0.3312 0
0.08 0.34 0
0.08 0.3488 0
0.08 0.3576 0
0.08 0.3664 0
0.08 0.3752 0
0.08 0.384 0
0.08 0.3928 0
0.08 0.4016 0
0.08 0.4104 0
0.08 0.4192 0
0.08 0.428 0
0.08 0.4368 0
0.08 0.4456 0
0.08 0.4544 0
0.08 0.4632 0
0.08 0.472 0
0.08 0.4808 0
0.08 0.4896 0
0.08 0.4984 0
0.08 0.5072 0
0.08 0.516 0
0.08 0.5248 0
0.08 0.5336 0
0.08 0.5424 0
0.08 0.5512 0
0.08 0.56 0
0.08 0.5688 0
0.08 0.5776 0
0.08 0.5864 0
0.08 0.5952 0
0.08 0.604 0
0.08 0.6128 0
0.08 0.6216 0
0.08 0.6304 0
0.08 0.6392 0
0.08 0.648 0
0.08 0.6568 0
0.08 0.6656 0
0.08 0.6744 0
0.08 0.6832 0
0.08 0.692 0
0.08 0.7008 0
0.08 0.7096 0
0.08 0.7184 0
0.08 0.7272 0
0.08 0.736 0
0.08 0.7448 0
0.08 0.7536 0
0.08 0.7624 0
0.08 0.7712 0
0.08 0.78 0
0.08 0.7888 0
0.08 0.7976 0
0.08 0.8064 0
0.08 0.8152 0
0.08 0.824 0
0.08 0.8328 0
0.08 0.8416 0
0.08 0.8504 0
0.08 0.8592 0
0.08 0.868 0
0.08 0.8768 0
0.08 0.8856 0
0.08 0.8944 0
0.08 0.9032 0
0.08 0.912 0
0.08 0.9208 0
0.08 0.9296 0
0.08 0.9384 0
0.08 0.9472 0
0.08 0.956 0
0.08 0.9648 0
0.08 0.9736 0
0.08 0.9824 0
0.08 0.9912 0
0.08 1 0
0.1 0.125 0
0.1 0.13375 0
0.1 0.1425 0
0.1 0.15125 0
0.1 0.16 0
0.1 0.16875 0
0.1 0.1775 0
0.1 0.18625 0
0.1 0.195 0
0.1 0.20375 0
0.1 0.2125 0
0.1 0.22125 0
0.1 0.23 0
0.1 0.23875 0
0.1 0.2475 0
0.1 0.25625 0
0.1 0.265 0
0.1 0.27375 0
0.1 0.2825 0
0.1 0.29125 0
0.1 0.3 0
0.1 0.30875 0
0.1 0.3175 0
0.1 0.32625 0
0.1 0.335 0
0.1 0.34375 0
0.1 0.3525 0
0.1 0.36125 0
0.1 0.37 0
0.1 0.37875 0
0.1 0.3875 0
0.1 0.39625 0
0.1 0.405 0
0.1 0.41375 0
0.1 0.4225 0
0.1 0.43125 0
0.1 0.44 0
0.1 0.44875 0
0.1 0.4575 0
0.1 0.46625 0
0.1 0.475 0
0.1 0.48375 0
0.1 0.4925 0
0.1 0.50125 0
0.1 0.51 0
0.1 0.51875 0
0.1 0.5275 0
0.1 0.53625 0
0.1 0.545 0
0.1 0.55375 0
0.1 0.5625 0
0.1 0.57125 0
0.1 0.58 0
0.1 0.58875 0
0.1 0.5975 0
0.1 0.60625 0
0.1 0.615 0
0.1 0.62375 0
0.1 0.6325 0
0.1 0.64125 0
0.1 0.65 0
0.1 0.65875 0
0.1 0.6675 0
0.1 0.67625 0
0.1 0.685 0
0.1 0.69375 0
0.1 0.7025 0
0.1 0.71125 0
0.1 0.72 0
0.1 0.72875 0
0.1 0.7375 0
0.1 0.74625 0
0.1 0.755 0
0.1 0.76375 0
0.1 0.7725 0
0.1 0.78125 0
0.1 0.79 0
0.1 0.79875 0
0.1 0.8075 0
0.1 0.81625 0
0.1 0.825 0
0.1 0.83375 0
0.1 0.8425 0
0.1 0.85125 0
0.1 0.86 0
0.1 0.86875 0
0.1 0.8775 0
0.1 0.88625 0
0.1 0.895 0
0.1 0.90375 0
0.1 0.9125 0
0.1 0.92125 0
0.1 0.93 0
0.1 0.93875 0
0.1 0.9475 0
0.1 0.95625 0
0.1 0.965 0
0.1 0.97375 0
0.1 0.9825 0
0.1 0.99125 0
0.1 1 0
0.12 0.13 0
0.12 0.1387 0
0.12 0.1474 0
0.12 0.1561 0
0.12 0.1648 0
0.12 0.1735 0
0.12 0.1822 0
0.12 0.1909 0
0.12 0.1996 0
0.12 0.2083 0
0.12 0.217 0
0.12 0.2257 0
0.12 0.2344 0
0.12 0.2431 0
0.12 0.2518 0
0.12 0.2605 0
0.12 0.2692 0
0.12 0.2779 0
0.12 0.2866 0
0.12 0.2953 0
0.12 0.304 0
0.12 0.3127 0
0.12 0.3214 0
0.12 0.3301 0
0.12 0.3388 0
0.12 0.3475 0
0.12 0.3562 0
0.12 0.3649 0
0.12 0.3736 0
0.12 0.3823 0
0.12 0.391 0
0.12 0.3997 0
0.12 0.4084 0
0.12 0.4171 0
0.12 0.4258 0
0.12 0.4345 0
0.12 0.4432 0
0.12 0.4519 0
0.12 0.4606 0
0.12 0.4693 0
0.12 0.478 0
0.12 0.4867 0
0.12 0.4954 0
0.12 0.5041 0
0.12 0.5128 0
0.12 0.5215 0
0.12 0.5302 0
0.12 0.5389 0
0.12 0.5476 0
0.12 0.5563 0
0.12 0.565 0
0.12 0.5737 0
0.12 0.5824 0
0.12 0.5911 0
0.12 0.5998 0
0.12 0.6085 0
0.12 0.6172 0
0.12 0.6259 0
0.12 0.6346 0
0.12 0.6433 0
0.12 0.652 0
0.12 0.6607 0
0.12 0.6694 0
0.12 0.6781 0
0.12 0.6868 0
0.12 0.6955 0
0.12 0.7042 0
0.12 0.7129 0
0.12 0.7216 0
0.12 0.7303 0
0.12 0.739 0
0.12 0.7477 0
0.12 0.7564 0
0.12 0.7651 0
0.12 0.7738 0
0.12 0.7825 0
0.12 0.7912 0
0.12 0.7999 0
0.12 0.8086 0
0.12 0.8173 0
0.12 0.826 0
0.12 0.8347 0
0.12 0.8434 0
0.12 0.8521 0
0.12 0.8608 0
0.12 0.8695 0
0.12 0.8782 0
0.12 0.8869 0
0.12 0.8956 0
0.12 0.9043 0
0.12 0.913 0
0.12 0.9217 0
0.12 0.9304 0
0.12 0.9391 0
0.12 0.9478 0
0.12 0.9565 0
0.12 0.9652 0
0.12 0.9739 0
0.12 0.9826 0
0.12 0.9913 0
0.12 1 0
0.14 0.135 0
0.14 0.14365 0
0.14 0.1523 0
0.14 0.16095 0
0.14 0.1696 0
0.14 0.17825 0
0.14 0.1869 0
0.14 0.19555 0
0.14 0.2042 0
0.14 0.21285 0
0.14 0.2215 0
0.14 0.23015 0
0.14 0.2388 0
0.14 0.24745 0
0.14 0.2561 0
0.14 0.26475 0
0.14 0.2734 0
0.14 0.28205 0
0.14 0.2907 0
0.14 0.29935 0
0.14 0.308 0
0.14 0.31665 0
0.14 0.3253 0
0.14 0.33395 0
0.14 0.3426 0
0.14 0.35125 0
0.14 0.3599 0
0.14 0.36855 0
0.14 0.3772 0
0.14 0.38585 0
0.14 0.3945 0
0.14 0.40315 0
0.14 0.4118 0
0.14 0.42045 0
0.14 0.4291 0
0.14 0.43775 0
0.14 0.4464 0
0.14 0.45505 0
0.14 0.4637 0
0.14 0.47235 0
0.14 0.481 0
0.14 0.48965 0
0.14 0.4983 0
0.14 0.50695 0
0.14 0.5156 0
0.14 0.52425 0
0.14 0.5329 0
0.14 0.54155 0
0.14 0.5502 0
0.14 0.55885 0
0.14 0.5675 0
0.14 0.57615 0
0.14 0.5848 0
0.14 0.59345 0
0.14 0.6021 0
0.14 0.61075 0
0.14 0.6194 0
0.14 0.62805 0
0.14 0.6367 0
0.14 0.64535 0
0.14 0.654 0
0.14 0.66265 0
0.14 0.6713 0
0.14 0.67995 0
0.14 0.6886 0
0.14 0.69725 0
0.14 0.7059 0
0.14 0.71455 0
0.14 0.7232 0
0.14 0.73185 0
0.14 0.7405 0
0.14 0.74915 0
0.14 0.7578 0
0.14 0.76645 0
0.14 0.7751 0
0.14 0.78375 0
0.14 0.7924 0
0.14 0.80105 0
0.14 0.8097 0
0.14 0.81835 0
0.14 0.827 0
0.14 0.83565 0
0.14 0.8443 0
0.14 0.85295 0
0.14 0.8616 0
0.14 0.87025 0
0.14 0.8789 0
0.14 0.88755 0
0.14 0.8962 0
0.14 0.90485 0
0.14 0.9135 0
0.14 0.92215 0
0.14 0.9308 0
0.14 0.93945 0
0.14 0.9481 0
0.14 0.95675 0
0.14 0.9654 0
0.14 0.97405 0
0.14 0.9827 0
0.14 0.99135 0
0.14 1 0
0.16 0.14 0
0.16 0.1486 0
0.16 0.1572 0
0.16 0.1658 0
0.16 0.1744 0
0.16 0.183 0
0.16 0.1916 0
0.16 0.2002 0
0.16 0.2088 0
0.16 0.2174 0
0.16 0.226 0
0.16 0.2346 0
0.16 0.2432 0
0.16 0.2518 0
0.16 0.2604 0
0.16 0.269 0
0.16 0.2776 0
0.16 0.2862 0
0.16 0.2948 0
0.16 0.3034 0
0.16 0.312 0
0.16 0.3206 0
0.16 0.3292 0
0.16 0.3378 0
0.16 0.3464 0
0.16 0.355 0
0.16 0.3636 0
0.16 0.3722 0
0.16 0.3808 0
0.16 0.3894 0
0.16 0.398 0
0.16 0.4066 0
0.16 0.4152 0
0.16 0.4238 0
0.16 0.4324 0
0.16 0.441 0
0.16 0.4496 0
0.16 0.4582 0
0.16 0.4668 0
0.16 0.4754 0
0.16 0.484 0
0.16 0.4926 0
0.16 0.5012 0
0.16 0.5098 0
0.16 0.5184 0
0.16 0.527 0
0.16 0.5356 0
0.16 0.5442 0
0.16 0.5528 0
0.16 0.5614 0
0.16 0.57 0
0.16 0.5786 0
0.16 0.5872 0
0.16 0.5958 0
0.16 0.6044 0
0.16 0.613 0
0.16 0.6216 0
0.16 0.6302 0
0.16 0.6388 0
0.16 0.6474 0
0.16 0.656 0
0.16 0.6646 0
0.16 0.6732 0
0.16 0.6818 0
0.16 0.6904 0
0.16 0.699 0
0.16 0.7076 0
0.16 0.7162 0
0.16 0.7248 0
0.16 0.7334 0
0.16 0.742 0
0.16 0.7506 0
0.16 0.7592 0
0.16 0.7678 0
0.16 0.7764 0
0.16 0.785 0
0.16 0.7936 0
0.16 0.8022 0
0.16 0.8108 0
0.16 0.8194 0
0.16 0.828 0
0.16 0.8366 0
0.16 0.8452 0
0.16 0.8538 0
0.16 0.8624 0
0.16 0.871 0
0.16 0.8796 0
0.16 0.8882 0
0.16 0.8968 0
0.16 0.9054 0
0.16 0.914 0
0.16 0.9226 0
0.16 0.9312 0
0.16 0.9398 0
0.16 0.9484 0
0.16 0.957 0
0.16 0.9656 0
0.16 0.9742 0
0.16 0.9828 0
0.16 0.9914 0
0.16 1 0
0.18 0.145 0
0.18 0.15355 0
0.18 0.1621 0
0.18 0.17065 0
0.18 0.1792 0
0.18 0.18775 0
0.18 0.1963 0
0.18 0.20485 0
0.18 0.2134 0
0.18 0.22195 0
0.18 0.2305 0
0.18 0.23905 0
0.18 0.2476 0
0.18 0.25615 0
0.18 0.2647 0
0.18 0.27325 0
0.18 0.2818 0
0.18 0.29035 0
0.18 0.2989 0
0.18 0.30745 0
0.18 0.316 0
0.18 0.32455 0
0.18 0.3331 0
0.18 0.34165 0
0.18 0.3502 0
0.18 0.35875 0
0.18 0.3673 0
0.18 0.37585 0
0.18 0.3844 0
0.18 0.39295 0
0.18 0.4015 0
0.18 0.41005 0
0.18 0.4186 0
0.18 0.42715 0
0.18 0.4357 0
0.18 0.44425 0
0.18 0.4528 0
0.18 0.46135 0
0.18 0.4699 0
0.18 0.47845 0
0.18 0.487 0
0.18 0.49555 0
0.18 0.5041 0
0.18 0.51265 0
0.18 0.5212 0
0.18 0.52975 0
0.18 0.5383 0
0.18 0.54685 0
0.18 0.5554 0
0.18 0.56395 0
0.18 0.5725 0
0.18 0.58105 0
0.18 0.5896 0
0.18 0.59815 0
0.18 0.6067 0
0.18 0.61525 0
0.18 0.6238 0
0.18 0.63235 0
0.18 0.6409 0
0.18 0.64945 0
0.18 0.658 0
0.18 0.66655 0
0.18 0.6751 0
0.18 0.68365 0
0.18 0.6922 0
0.18 0.70075 0
0.18 0.7093 0
0.18 0.71785 0
0.18 0.7264 0
0.18 0.73495 0
0.18 0.7435 0
0.18 0.75205 0
0.18 0.7606 0
0.18 0.76915 0
0.18 0.7777 0
0.18 0.78625 0
0.18 0.7948 0
0.18 0.80335 0
0.18 0.8119 0
0.18 0.82045 0
0.18 0.829 0
0.18 0.83755 0
0.18 0.8461 0
0.18 0.85465 0
0.18 0.8632 0
0.18 0.87175 0
0.18 0.8803 0
0.18 0.88885 0
0.18 0.8974 0
0.18 0.90595 0
0.18 0.9145 0
0.18 0.92305 0
0.18 0.9316 0
0.18 0.94015 0
0.18 0.9487 0
0.18 0.95725 0
0.18 0.9658 0
0.18 0.97435 0
0.18 0.9829 0
0.18 0.99145 0
0.18 1 0
0.2 0.15 0
0.2 0.1585 0
0.2 0.167 0
0.2 0.1755 0
0.2 0.184 0
0.2 0.1925 0
0.2 0.201 0
0.2 0.2095 0
0.2 0.218 0
0.2 0.2265 0
0.2 0.235 0
0.2 0.2435 0
0.2 0.252 0
0.2 0.2605 0
0.2 0.269 0
0.2 0.2775 0
0.2 0.286 0
0.2 0.2945 0
0.2 0.303 0
0.2 0.3115 0
0.2 0.32 0
0.2 0.3285 0
0.2 0.337 0
0.2 0.3455 0
0.2 0.354 0
0.2 0.3625 0
0.2 0.371 0
0.2 0.3795 0
0.2 0.388 0
0.2 0.3965 0
0.2 0.405 0
0.2 0.4135 0
0.2 0.422 0
0.2 0.4305 0
0.2 0.439 0
0.2 0.4475 0
0.2 0.456 0
0.2 0.4645 0
0.2 0.473 0
0.2 0.4815 0
0.2 0.49 0
0.2 0.4985 0
0.2 0.507 0
0.2 0.5155 0
0.2 0.524 0
0.2 0.5325 0
0.2 0.541 0
0.2 0.5495 0
0.2 0.558 0
0.2 0.5665 0
0.2 0.575 0
0.2 0.5835 0
0.2 0.592 0
0.2 0.6005 0
0.2 0.609 0
0.2 0.6175 0
0.2 0.626 0
0.2 0.6345 0
0.2 0.643 0
0.2 0.6515 0
0.2 0.66 0
0.2 0.6685 0
0.2 0.677 0
0.2 0.6855 0
0.2 0.694 0
0.2 0.7025 0
0.2 0.711 0
0.2 0.7195 0
0.2 0.728 0
0.2 0.7365 0
0.2 0.745 0
0.2 0.7535 0
0.2 0.762 0
0.2 0.7705 0
0.2 0.779 0
0.2 0.7875 0
0.2 0.796 0
0.2 0.8045 0
0.2 0.813 0
0.2 0.8215 0
0.2 0.83 0
0.2 0.8385 0
0.2 0.847 0
0.2 0.8555 0
0.2 0.864 0
0.2 0.8725 0
0.2 0.881 0
0.2 0.8895 0
0.2 0.898 0
0.2 0.9065 0
0.2 0.915 0
0.2 0.9235 0
0.2 0.932 0
0.2 0.9405 0
0.2 0.949 0
0.2 0.9575 0
0.2 0.966 0
0.2 0.9745 0
0.2 0.983 0
0.2 0.9915 0
0.2 1 0
0.22 0.155 0
0.22 0.16345 0
0.22 0.1719 0
0.22 0.18035 0
0.22 0.1888 0
0.22 0.19725 0
0.22 0.2057 0
0.22 0.21415 0
0.22 0.2226 0
0.22 0.23105 0
0.22 0.2395 0
0.22 0.24795 0
0.22 0.2564 0
0.22 0.26485 0
0.22 0.2733 0
0.22 0.28175 0
0.22 0.2902 0
0.22 0.29865 0
0.22 0.3071 0
0.22 0.31555 0
0.22 0.324 0
0.22 0.33245 0
0.22 0.3409 0
0.22 0.34935 0
0.22 0.3578 0
0.22 0.36625 0
0.22 0.3747 0
0.22 0.38315 0
0.22 0.3916 0
0.22 0.40005 0
0.22 0.4085 0
0.22 0.41695 0
0.22 0.4254 0
0.22 0.43385 0
0.22 0.4423 0
0.22 0.45075 0
0.22 0.4592 0
0.22 0.46765 0
0.22 0.4761 0
0.22 0.48455 0
0.22 0.493 0
0.22 0.50145 0
0.22 0.5099 0
0.22 0.51835 0
0.22 0.5268 0
0.22 0.53525 0
0.22 0.5437 0
0.22 0.55215 0
0.22 0.5606 0
0.22 0.56905 0
0.22 0.5775 0
0.22 0.58595 0
0.22 0.5944 0
0.22 0.60285 0
0.22 0.6113 0
0.22 0.61975 0
0.22 0.6282 0
0.22 0.63665 0
0.22 0.6451 0
0.22 0.65355 0
0.22 0.662 0
0.22 0.67045 0
0.22 0.6789 0
0.22 0.68735 0
0.22 0.6958 0
0.22 0.70425 0
0.22 0.7127 0
0.22 0.72115 0
0.22 0.7296 0
0.22 0.73805 0
0.22 0.7465 0
0.22 0.75495 0
0.22 0.7634 0
0.22 0.77185 0
0.22 0.7803 0
0.22 0.78875 0
0.22 0.7972 0
0.22 0.80565 0
0.22 0.8141 0
0.22 0.82255 0
0.22 0.831 0
0.22 0.83945 0
0.22 0.8479 0
0.22 0.85635 0
0.22 0.8648 0
0.22 0.87325 0
0.22 0.8817 0
0.22 0.89015 0
0.22 0.8986 0
0.22 0.90705 0
0.22 0.9155 0
0.22 0.92395 0
0.22 0.9324 0
0.22 0.94085 0
0.22 0.9493 0
0.22 0.95775 0
0.22 0.9662 0
0.22 0.97465 0
0.22 0.9831 0
0.22 0.99155 0
0.22 1 0
0.24 0.16 0
0.24 0.1684 0
0.24 0.1768 0
0.24 0.1852 0
0.24 0.1936 0
0.24 0.202 0
0.24 0.2104 0
0.24 0.2188 0
0.24 0.2272 0
0.24 0.2356 0
0.24 0.244 0
0.24 0.2524 0
0.24 0.2608 0
0.24 0.2692 0
0.24 0.2776 0
0.24 0.286 0
0.24 0.2944 0
0.24 0.3028 0
0.24 0.3112 0
0.24 0.3196 0
0.24 0.328 0
0.24 0.3364 0
0.24 0.3448 0
0.24 0.3532 0
0.24 0.3616 0
0.24 0.37 0
0.24 0.3784 0
0.24 0.3868 0
0.24 0.3952 0
0.24 0.4036 0
0.24 0.412 0
0.24 0.4204 0
0.24 0.4288 0
0.24 0.4372 0
0.24 0.4456 0
0.24 0.454 0
0.24 0.4624 0
0.24 0.4708 0
0.24 0.4792 0
0.24 0.4876 0
0.24 0.496 0
0.24 0.5044 0
0.24 0.5128 0
0.24 0.5212 0
0.24 0.5296 0
0.24 0.538 0
0.24 0.5464 0
0.24 0.5548 0
0.24 0.5632 0
0.24 0.5716 0
0.24 0.58 0
0.24 0.5884 0
0.24 0.5968 0
0.24 0.6052 0
0.24 0.6136 0
0.24 0.622 0
0.24 0.6304 0
0.24 0.6388 0
0.24 0.6472 0
0.24 0.6556 0
0.24 0.664 0
0.24 0.6724 0
0.24 0.6808 0
0.24 0.6892 0
0.24 0.6976 0
0.24 0.706 0
0.24 0.7144 0
0.24 0.7228 0
0.24 0.7312 0
0.24 0.7396 0
0.24 0.748 0
0.24 0.7564 0
0.24 0.7648 0
0.24 0.7732 0
0.24 0.7816 0
0.24 0.79 0
0.24 0.7984 0
0.24 0.8068 0
0.24 0.8152 0
0.24 0.8236 0
0.24 0.832 0
0.24 0.8404 0
0.24 0.8488 0
0.24 0.8572 0
0.24 0.8656 0
0.24 0.874 0
0.24 0.8824 0
0.24 0.8908 0
0.24 0.8992 0
0.24 0.9076 0
0.24 0.916 0
0.24 0.9244 0
0.24 0.9328 0
0.24 0.9412 0
0.24 0.9496 0
0.24 0.958 0
0.24 0.9664 0
0.24 0.9748 0
0.24 0.9832 0
0.24 0.9916 0
0.24 1 0
0.26 0.165 0
0.26 0.17335 0
0.26 0.1817 0
0.26 0.19005 0
0.26 0.1984 0
0.26 0.20675 0
0.26 0.2151 0
0.26 0.22345 0
0.26 0.2318 0
0.26 0.24015 0
0.26 0.2485 0
0.26 0.25685 0
0.26 0.2652 0
0.26 0.27355 0
0.26 0.2819 0
0.26 0.29025 0
0.26 0.2986 0
0.26 0.30695 0
0.26 0.3153 0
0.26 0.32365 0
0.26 0.332 0
0.26 0.34035 0
0.26 0.3487 0
0.26 0.35705 0
0.26 0.3654 0
0.26 0.37375 0
0.26 0.3821 0
0.26 0.39045 0
0.26 0.3988 0
0.26 0.40715 0
0.26 0.4155 0
0.26 0.42385 0
0.26 0.4322 0
0.26 0.44055 0
0.26 0.4489 0
0.26 0.45725 0
0.26 0.4656 0
0.26 0.47395 0
0.26 0.4823 0
0.26 0.49065 0
0.26 0.499 0
0.26 0.50735 0
0.26 0.5157 0
0.26 0.52405 0
0.26 0.5324 0
0.26 0.54075 0
0.26 0.5491 0
0.26 0.55745 0
0.26 0.5658 0
0.26 0.57415 0
0.26 0.5825 0
0.26 0.59085 0
0.26 0.5992 0
0.26 0.60755 0
0.26 0.6159 0
0.26 0.62425 0
0.26 0.6326 0
0.26 0.64095 0
0.26 0.6493 0
0.26 0.65765 0
0.26 0.666 0
0.26 0.67435 0
0.26 0.6827 0
0.26 0.69105 0
0.26 0.6994 0
0.26 0.70775 0
0.26 0.7161 0
0.26 0.72445 0
0.26 0.7328 0
0.26 0.74115 0
0.26 0.7495 0
0.26 0.75785 0
0.26 0.7662 0
0.26 0.77455 0
0.26 0.7829 0
0.26 0.79125 0
0.26 0.7996 0
0.26 0.80795 0
0.26 0.8163 0
0.26 0.82465 0
0.26 0.833 0
0.26 0.84135 0
0.26 0.8497 0
0.26 0.85805 0
0.26 0.8664 0
0.26 0.87475 0
0.26 0.8831 0
0.26 0.89145 0
0.26 0.8998 0
0.26 0.90815 0
0.26 0.9165 0
0.26 0.92485 0
0.26 0.9332 0
0.26 0.94155 0
0.26 0.9499 0
0.26 0.95825 0
0.26 0.9666 0
0.26 0.97495 0
0.26 0.9833 0
0.26 0.99165 0
0.26 1 0
0.28 0.17 0
0.28 0.1783 0
0.28 0.1866 0
0.28 0.1949 0
0.28 0.2032 0
0.28 0.2115 0
0.28 0.2198 0
0.28 0.2281 0
0.28 0.2364 0
0.28 0.2447 0
0.28 0.253 0
0.28 0.2613 0
0.28 0.2696 0
0.28 0.2779 0
0.28 0.2862 0
0.28 0.2945 0
0.28 0.3028 0
0.28 0.3111 0
0.28 0.3194 0
0.28 0.3277 0
0.28 0.336 0
0.28 0.3443 0
0.28 0.3526 0
0.28 0.3609 0
0.28 0.3692 0
0.28 0.3775 0
0.28 0.3858 0
0.28 0.3941 0
0.28 0.4024 0
0.28 0.4107 0
0.28 0.419 0
0.28 0.4273 0
0.28 0.4356 0
0.28 0.4439 0
0.28 0.4522 0
0.28 0.4605 0
0.28 0.4688 0
0.28 0.4771 0
0.28 0.4854 0
0.28 0.4937 0
0.28 0.502 0
0.28 0.5103 0
0.28 0.5186 0
0.28 0.5269 0
0.28 0.5352 0
0.28 0.5435 0
0.28 0.5518 0
0.28 0.5601 0
0.28 0.5684 0
0.28 0.5767 0
0.28 0.585 0
0.28 0.5933 0
0.28 0.6016 0
0.28 0.6099 0
0.28 0.6182 0
0.28 0.6265 0
0.28 0.6348 0
0.28 0.6431 0
0.28 0.6514 0
0.28 0.6597 0
0.28 0.668 0
0.28 0.6763 0
0.28 0.6846 0
0.28 0.6929 0
0.28 0.7012 0
0.28 0.7095 0
0.28 0.7178 0
0.28 0.7261 0
0.28 0.7344 0
0.28 0.7427 0
0.28 0.751 0
0.28 0.7593 0
0.28 0.7676 0
0.28 0.7759 0
0.28 0.7842 0
0.28 0.7925 0
0.28 0.8008 0
0.28 0.8091 0
0.28 0.8174 0
0.28 0.8257 0
0.28 0.834 0
0.28 0.8423 0
0.28 0.8506 0
0.28 0.8589 0
0.28 0.8672 0
0.28 0.8755 0
0.28 0.8838 0
0.28 0.8921 0
0.28 0.9004 0
0.28 0.9087 0
0.28 0.917 0
0.28 0.9253 0
0.28 0.9336 0
0.28 0.9419 0
0.28 0.9502 0
0.28 0.9585 0
0.28 0.9668 0
0.28 0.9751 0
0.28 0.9834 0
0.28 0.9917 0
0.28 1 0
0.3 0.175 0
0.3 0.18325 0
0.3 0.1915 0
0.3 0.19975 0
0.3 0.208 0
0.3 0.21625 0
0.3 0.2245 0
0.3 0.23275 0
0.3 0.241 0
0.3 0.24925 0
0.3 0.2575 0
0.3 0.26575 0
0.3 0.274 0
0.3 0.28225 0
0.3 0.2905 0
0.3 0.29875 0
0.3 0.307 0
0.3 0.31525 0
0.3 0.3235 0
0.3 0.33175 0
0.3 0.34 0
0.3 0.34825 0
0.3 0.3565 0
0.3 0.36475 0
0.3 0.373 0
0.3 0.38125 0
0.3 0.3895 0
0.3 0.39775 0
0.3 0.406 0
0.3 0.41425 0
0.3 0.4225 0
0.3 0.43075 0
0.3 0.439 0
0.3 0.44725 0
0.3 0.4555 0
0.3 0.46375 0
0.3 0.472 0
0.3 0.48025 0
0.3 0.4885 0
0.3 0.49675 0
0.3 0.505 0
0.3 0.51325 0
0.3 0.5215 0
0.3 0.52975 0
0.3 0.538 0
0.3 0.54625 0
0.3 0.5545 0
0.3 0.56275 0
0.3 0.571 0
0.3 0.57925 0
0.3 0.5875 0
0.3 0.59575 0
0.3 0.604 0
0.3 0.61225 0
0.3 0.6205 0
0.3 0.62875 0
0.3 0.637 0
0.3 0.64525 0
0.3 0.6535 0
0.3 0.66175 0
0.3 0.67 0
0.3 0.67825 0
0.3 0.6865 0
0.3 0.69475 0
0.3 0.703 0
0.3 0.71125 0
0.3 0.7195 0
0.3 0.72775 0
0.3 0.736 0
0.3 0.74425 0
0.3 0.7525 0
0.3 0.76075 0
0.3 0.769 0
0.3 0.77725 0
0.3 0.7855 0
0.3 0.79375 0
0.3 0.802 0
0.3 0.81025 0
0.3 0.8185 0
0.3 0.82675 0
0.3 0.835 0
0.3 0.84325 0
0.3 0.8515 0
0.3 0.85975 0
0.3 0.868 0
0.3 0.87625 0
0.3 0.8845 0
0.3 0.89275 0
0.3 0.901 0
0.3 0.90925 0
0.3 0.9175 0
0.3 0.92575 0
0.3 0.934 0
0.3 0.94225 0
0.3 0.9505 0
0.3 0.95875 0
0.3 0.967 0
0.3 0.97525 0
0.3 0.9835 0
0.3 0.99175 0
0.3 1 0
0.32 0.18 0
0.32 0.1882 0
0.32 0.1964 0
0.32 0.2046 0
0.32 0.2128 0
0.32 0.221 0
0.32 0.2292 0
0.32 0.2374 0
0.32 0.2456 0
0.32 0.2538 0
0.32 0.262 0
0.32 0.2702 0
0.32 0.2784 0
0.32 0.2866 0
0.32 0.2948 0
0.32 0.303 0
0.32 0.3112 0
0.32 0.3194 0
0.32 0.3276 0
0.32 0.3358 0
0.32 0.344 0
0.32 0.3522 0
0.32 0.3604 0
0.32 0.3686 0
0.32 0.3768 0
0.32 0.385 0
0.32 0.3932 0
0.32 0.4014 0
0.32 0.4096 0
0.32 0.4178 0
0.32 0.426 0
0.32 0.4342 0
0.32 0.4424 0
0.32 0.4506 0
0.32 0.4588 0
0.32 0.467 0
0.32 0.4752 0
0.32 0.4834 0
0.32 0.4916 0
0.32 0.4998 0
0.32 0.508 0
0.32 0.5162 0
0.32 0.5244 0
0.32 0.5326 0
0.32 0.5408 0
0.32 0.549 0
0.32 0.5572 0
0.32 0.5654 0
0.32 0.5736 0
0.32 0.5818 0
0.32 0.59 0
0.32 0.5982 0
0.32 0.6064 0
0.32 0.6146 0
0.32 0.6228 0
0.32 0.631 0
0.32 0.6392 0
0.32 0.6474 0
0.32 0.6556 0
0.32 0.6638 0
0.32 0.672 0
0.32 0.6802 0
0.32 0.6884 0
0.32 0.6966 0
0.32 0.7048 0
0.32 0.713 0
0.32 0.7212 0
0.32 0.7294 0
0.32 0.7376 0
0.32 0.7458 0
0.32 0.754 0
0.32 0.7622 0
0.32 0.7704 0
0.32 0.7786 0
0.32 0.7868 0
0.32 0.795 0
0.32 0.8032 0
0.32 0.8114 0
0.32 0.8196 0
0.32 0.8278 0
0.32 0.836 0
0.32 0.8442 0
0.32 0.8524 0
0.32 0.8606 0
0.32 0.8688 0
0.32 0.877 0
0.32 0.8852 0
0.32 0.8934 0
0.32 0.9016 0
0.32 0.9098 0
0.32 0.918 0
0.32 0.9262 0
0.32 0.9344 0
0.32 0.9426 0
0.32 0.9508 0
0.32 0.959 0
0.32 0.9672 0
0.32 0.9754 0
0.32 0.9836 0
0.32 0.9918 0
0.32 1 0
0.34 0.185 0
0.34 0.19315 0
0.34 0.2013 0
0.34 0.20945 0
0.34 0.2176 0
0.34 0.22575 0
0.34 0.2339 0
0.34 0.24205 0
0.34 0.2502 0
0.34 0.25835 0
0.34 0.2665 0
0.34 0.27465 0
0.34 0.2828 0
0.34 0.29095 0
0.34 0.2991 0
0.34 0.30725 0
0.34 0.3154 0
0.34 0.32355 0
0.34 0.3317 0
0.34 0.33985 0
0.34 0.348 0
0.34 0.35615 0
0.34 0.3643 0
0.34 0.37245 0
0.34 0.3806 0
0.34 0.38875 0
0.34 0.3969 0
0.34 0.40505 0
0.34 0.4132 0
0.34 0.42135 0
0.34 0.4295 0
0.34 0.43765 0
0.34 0.4458 0
0.34 0.45395 0
0.34 0.4621 0
0.34 0.47025 0
0.34 0.4784 0
0.34 0.48655 0
0.34 0.4947 0
0.34 0.50285 0
0.34 0.511 0
0.34 0.51915 0
0.34 0.5273 0
0.34 0.53545 0
0.34 0.5436 0
0.34 0.55175 0
0.34 0.5599 0
0.34 0.56805 0
0.34 0.5762 0
0.34 0.58435 0
0.34 0.5925 0
0.34 0.60065 0
0.34 0.6088 0
0.34 0.61695 0
0.34 0.6251 0
0.34 0.63325 0
0.34 0.6414 0
0.34 0.64955 0
0.34 0.6577 0
0.34 0.66585 0
0.34 0.674 0
0.34 0.68215 0
0.34 0.6903 0
0.34 0.69845 0
0.34 0.7066 0
0.34 0.71475 0
0.34 0.7229 0
0.34 0.73105 0
0.34 0.7392 0
0.34 0.74735 0
0.34 0.7555 0
0.34 0.76365 0
0.34 0.7718 0
0.34 0.77995 0
0.34 0.7881 0
0.34 0.79625 0
0.34 0.8044 0
0.34 0.81255 0
0.34 0.8207 0
0.34 0.82885 0
0.34 0.837 0
0.34 0.84515 0
0.34 0.8533 0
0.34 0.86145 0
0.34 0.8696 0
0.34 0.87775 0
0.34 0.8859 0
0.34 0.89405 0
0.34 0.9022 0
0.34 0.91035 0
0.34 0.9185 0
0.34 0.92665 0
0.34 0.9348 0
0.34 0.94295 0
0.34 0.9511 0
0.34 0.95925 0
0.34 0.9674 0
0.34 0.97555 0
0.34 0.9837 0
0.34 0.99185 0
0.34 1 0
0.36 0.19 0
0.36 0.1981 0
0.36 0.2062 0
0.36 0.2143 0
0.36 0.2224 0
0.36 0.2305 0
0.36 0.2386 0
0.36 0.2467 0
0.36 0.2548 0
0.36 0.2629 0
0.36 0.271 0
0.36 0.2791 0
0.36 0.2872 0
0.36 0.2953 0
0.36 0.3034 0
0.36 0.3115 0
0.36 0.3196 0
0.36 0.3277 0
0.36 0.3358 0
0.36 0.3439 0
0.36 0.352 0
0.36 0.3601 0
0.36 0.3682 0
0.36 0.3763 0
0.36 0.3844 0
0.36 0.3925 0
0.36 0.4006 0
0.36 0.4087 0
0.36 0.4168 0
0.36 0.4249 0
0.36 0.433 0
0.36 0.4411 0
0.36 0.4492 0
0.36 0.4573 0
0.36 0.4654 0
0.36 0.4735 0
0.36 0.4816 0
0.36 0.4897 0
0.36 0.4978 0
0.36 0.5059 0
0.36 0.514 0
0.36 0.5221 0
0.36 0.5302 0
0.36 0.5383 0
0.36 0.5464 0
0.36 0.5545 0
0.36 0.5626 0
0.36 0.5707 0
0.36 0.5788 0
0.36 0.5869 0
0.36 0.595 0
0.36 0.6031 0
0.36 0.6112 0
0.36 0.6193 0
0.36 0.6274 0
0.36 0.6355 0
0.36 0.6436 0
0.36 0.6517 0
0.36 0.6598 0
0.36 0.6679 0
0.36 0.676 0
0.36 0.6841 0
0.36 0.6922 0
0.36 0.7003 0
0.36 0.7084 0
0.36 0.7165 0
0.36 0.7246 0
0.36 0.7327 0
0.36 0.7408 0
0.36 0.7489 0
0.36 0.757 0
0.36 0.7651 0
0.36 0.7732 0
0.36 0.7813 0
0.36 0.7894 0
0.36 0.7975 0
0.36 0.8056 0
0.36 0.8137 0
0.36 0.8218 0
0.36 0.8299 0
0.36 0.838 0
0.36 0.8461 0
0.36 0.8542 0
0.36 0.8623 0
0.36 0.8704 0
0.36 0.8785 0
0.36 0.8866 0
0.36 0.8947 0
0.36 0.9028 0
0.36 0.9109 0
0.36 0.919 0
0.36 0.9271 0
0.36 0.9352 0
0.36 0.9433 0
0.36 0.9514 0
0.36 0.9595 0
0.36 0.9676 0
0.36 0.9757 0
0.36 0.9838 0
0.36 0.9919 0
0.36 1 0
0.38 0.195 0
0.38 0.20305 0
0.38 0.2111 0
0.38 0.21915 0
0.38 0.2272 0
0.38 0.23525 0
0.38 0.2433 0
0.38 0.25135 0
0.38 0.2594 0
0.38 0.26745 0
0.38 0.2755 0
0.38 0.28355 0
0.38 0.2916 0
0.38 0.29965 0
0.38 0.3077 0
0.38 0.31575 0
0.38 0.3238 0
0.38 0.33185 0
0.38 0.3399 0
0.38 0.34795 0
0.38 0.356 0
0.38 0.36405 0
0.38 0.3721 0
0.38 0.38015 0
0.38 0.3882 0
0.38 0.39625 0
0.38 0.4043 0
0.38 0.41235 0
0.38 0.4204 0
0.38 0.42845 0
0.38 0.4365 0
0.38 0.44455 0
0.38 0.4526 0
0.38 0.46065 0
0.38 0.4687 0
0.38 0.47675 0
0.38 0.4848 0
0.38 0.49285 0
0.38 0.5009 0
0.38 0.50895 0
0.38 0.517 0
0.38 0.52505 0
0.38 0.5331 0
0.38 0.54115 0
0.38 0.5492 0
0.38 0.55725 0
0.38 0.5653 0
0.38 0.57335 0
0.38 0.5814 0
0.38 0.58945 0
0.38 0.5975 0
0.38 0.60555 0
0.38 0.6136 0
0.38 0.62165 0
0.38 0.6297 0
0.38 0.63775 0
0.38 0.6458 0
0.38 0.65385 0
0.38 0.6619 0
0.38 0.66995 0
0.38 0.678 0
0.38 0.68605 0
0.38 0.6941 0
0.38 0.70215 0
0.38 0.7102 0
0.38 0.71825 0
0.38 0.7263 0
0.38 0.73435 0
0.38 0.7424 0
0.38 0.75045 0
0.38 0.7585 0
0.38 0.76655 0
0.38 0.7746 0
0.38 0.78265 0
0.38 0.7907 0
0.38 0.79875 0
0.38 0.8068 0
0.38 0.81485 0
0.38 0.8229 0
0.38 0.83095 0
0.38 0.839 0
0.38 0.84705 0
0.38 0.8551 0
0.38 0.86315 0
0.38 0.8712 0
0.38 0.87925 0
0.38 0.8873 0
0.38 0.89535 0
0.38 0.9034 0
0.38 0.91145 0
0.38 0.9195 0
0.38 0.92755 0
0.38 0.9356 0
0.38 0.94365 0
0.38 0.9517 0
0.38 0.95975 0
0.38 0.9678 0
0.38 0.97585 0
0.38 0.9839 0
0.38 0.99195 0
0.38 1 0
0.4 0.2 0
0.4 0.208 0
0.4 0.216 0
0.4 0.224 0
0.4 0.232 0
0.4 0.24 0
0.4 0.248 0
0.4 0.256 0
0.4 0.264 0
0.4 0.272 0
0.4 0.28 0
0.4 0.288 0
0.4 0.296 0
0.4 0.304 0
0.4 0.312 0
0.4 0.32 0
0.4 0.328 0
0.4 0.336 0
0.4 0.344 0
0.4 0.352 0
0.4 0.36 0
0.4 0.368 0
0.4 0.376 0
0.4 0.384 0
0.4 0.392 0
0.4 0.4 0
0.4 0.408 0
0.4 0.416 0
0.4 0.424 0
0.4 0.432 0
0.4 0.44 0
0.4 0.448 0
0.4 0.456 0
0.4 0.464 0
0.4 0.472 0
0.4 0.48 0
0.4 0.488 0
0.4 0.496 0
0.4 0.504 0
0.4 0.512 0
0.4 0.52 0
0.4 0.528 0
0.4 0.536 0
0.4 0.544 0
0.4 0.552 0
0.4 0.56 0
0.4 0.568 0
0.4 0.576 0
0.4 0.584 0
0.4 0.592 0
0.4 0.6 0
0.4 0.608 0
0.4 0.616 0
0.4 0.624 0
0.4 0.632 0
0.4 0.64 0
0.4 0.648 0
0.4 0.656 0
0.4 0.664 0
0.4 0.672 0
0.4 0.68 0
0.4 0.688 0
0.4 0.696 0
0.4 0.704 0
0.4 0.712 0
0.4 0.72 0
0.4 0.728 0
0.4 0.736 0
0.4 0.744 0
0.4 0.752 0
0.4 0.76 0
0.4 0.768 0
0.4 0.776 0
0.4 0.784 0
0.4 0.792 0
0.4 0.8 0
0.4 0.808 0
0.4 0.816 0
0.4 0.824 0
0.4 0.832 0
0.4 0.84 0
0.4 0.848 0
0.4 0.856 0
0.4 0.864 0
0.4 0.872 0
0.4 0.88 0
0.4 0.888 0
0.4 0.896 0
0.4 0.904 0
0.4 0.912 0
0.4 0.92 0
0.4 0.928 0
0.4 0.936 0
0.4 0.944 0
0.4 0.952 0
0.4 0.96 0
0.4 0.968 0
0.4 0.976 0
0.4 0.984 0
0.4 0.992 0
0.4 1 0
0.42 0.205 0
0.42 0.21295 0
0.42 0.2209 0
0.42 0.22885 0
0.42 0.2368 0
0.42 0.24475 0
0.42 0.2527 0
0.42 0.26065 0
0.42 0.2686 0
0.42 0.27655 0
0.42 0.2845 0
0.42 0.29245 0
0.42 0.3004 0
0.42 0.30835 0
0.42 0.3163 0
0.42 0.32425 0
0.42 0.3322 0
0.42 0.34015 0
0.42 0.3481 0
0.42 0.35605 0
0.42 0.364 0
0.42 0.37195 0
0.42 0.3799 0
0.42 0.38785 0
0.42 0.3958 0
0.42 0.40375 0
0.42 0.4117 0
0.42 0.41965 0
0.42 0.4276 0
0.42 0.43555 0
0.42 0.4435 0
0.42 0.45145 0
0.42 0.4594 0
0.42 0.46735 0
0.42 0.4753 0
0.42 0.48325 0
0.42 0.4912 0
0.42 0.49915 0
0.42 0.5071 0
0.42 0.51505 0
0.42 0.523 0
0.42 0.53095 0
0.42 0.5389 0
0.42 0.54685 0
0.42 0.5548 0
0.42 0.56275 0
0.42 0.5707 0
0.42 0.57865 0
0.42 0.5866 0
0.42 0.59455 0
0.42 0.6025 0
0.42 0.61045 0
0.42 0.6184 0
0.42 0.62635 0
0.42 0.6343 0
0.42 0.64225 0
0.42 0.6502 0
0.42 0.65815 0
0.42 0.6661 0
0.42 0.67405 0
0.42 0.682 0
0.42 0.68995 0
0.42 0.6979 0
0.42 0.70585 0
0.42 0.7138 0
0.42 0.72175 0
0.42 0.7297 0
0.42 0.73765 0
0.42 0.7456 0
0.42 0.75355 0
0.42 0.7615 0
0.42 0.76945 0
0.42 0.7774 0
0.42 0.78535 0
0.42 0.7933 0
0.42 0.80125 0
0.42 0.8092 0
0.42 0.81715 0
0.42 0.8251 0
0.42 0.83305 0
0.42 0.841 0
0.42 0.84895 0
0.42 0.8569 0
0.42 0.86485 0
0.42 0.8728 0
0.42 0.88075 0
0.42 0.8887 0
0.42 0.89665 0
0.42 0.9046 0
0.42 0.91255 0
0.42 0.9205 0
0.42 0.92845 0
0.42 0.9364 0
0.42 0.94435 0
0.42 0.9523 0
0.42 0.96025 0
0.42 0.9682 0
0.42 0.97615 0
0.42 0.9841 0
0.42 0.99205 0
0.42 1 0
0.44 0.21 0
0.44 0.2179 0
0.44 0.2258 0
0.44 0.2337 0
0.44 0.2416 0
0.44 0.2495 0
0.44 0.2574 0
0.44 0.2653 0
0.44 0.2732 0
0.44 0.2811 0
0.44 0.289 0
0.44 0.2969 0
0.44 0.3048 0
0.44 0.3127 0
0.44 0.3206 0
0.44 0.3285 0
0.44 0.3364 0
0.44 0.3443 0
0.44 0.3522 0
0.44 0.3601 0
0.44 0.368 0
0.44 0.3759 0
0.44 0.3838 0
0.44 0.3917 0
0.44 0.3996 0
0.44 0.4075 0
0.44 0.4154 0
0.44 0.4233 0
0.44 0.4312 0
0.44 0.4391 0
0.44 0.447 0
0.44 0.4549 0
0.44 0.4628 0
0.44 0.4707 0
0.44 0.4786 0
0.44 0.4865 0
0.44 0.4944 0
0.44 0.5023 0
0.44 0.5102 0
0.44 0.5181 0
0.44 0.526 0
0.44 0.5339 0
0.44 0.5418 0
0.44 0.5497 0
0.44 0.5576 0
0.44 0.5655 0
0.44 0.5734 0
0.44 0.5813 0
0.44 0.5892 0
0.44 0.5971 0
0.44 0.605 0
0.44 0.6129 0
0.44 0.6208 0
0.44 0.6287 0
0.44 0.6366 0
0.44 0.6445 0
0.44 0.6524 0
0.44 0.6603 0
0.44 0.6682 0
0.44 0.6761 0
0.44 0.684 0
0.44 0.6919 0
0.44 0.6998 0
0.44 0.7077 0
0.44 0.7156 0
0.44 0.7235 0
0.44 0.7314 0
0.44 0.7393 0
0.44 0.7472 0
0.44 0.7551 0
0.44 0.763 0
0.44 0.7709 0
0.44 0.7788 0
0.44 0.7867 0
0.44 0.7946 0
0.44 0.8025 0
0.44 0.8104 0
0.44 0.8183 0
0.44 0.8262 0
0.44 0.8341 0
0.44 0.842 0
0.44 0.8499 0
0.44 0.8578 0
0.44 0.8657 0
0.44 0.8736 0
0.44 0.8815 0
0.44 0.8894 0
0.44 0.8973 0
0.44 0.9052 0
0.44 0.9131 0
0.44 0.921 0
0.44 0.9289 0
0.44 0.9368 0
0.44 0.9447 0
0.44 0.9526 0
0.44 0.9605 0
0.44 0.9684 0
0.44 0.9763 0
0.44 0.9842 0
0.44 0.9921 0
0.44 1 0
0.46 0.215 0
0.46 0.22285 0
0.46 0.2307 0
0.46 0.23855 0
0.46 0.2464 0
0.46 0.25425 0
0.46 0.2621 0
0.46 0.26995 0
0.46 0.2778 0
0.46 0.28565 0
0.46 0.2935 0
0.46 0.30135 0
0.46 0.3092 0
0.46 0.31705 0
0.46 0.3249 0
0.46 0.33275 0
0.46 0.3406 0
0.46 0.34845 0
0.46 0.3563 0
0.46 0.36415 0
0.46 0.372 0
0.46 0.37985 0
0.46 0.3877 0
0.46 0.39555 0
0.46 0.4034 0
0.46 0.41125 0
0.46 0.4191 0
0.46 0.42695 0
0.46 0.4348 0
0.46 0.44265 0
0.46 0.4505 0
0.46 0.45835 0
0.46 0.4662 0
0.46 0.47405 0
0.46 0.4819 0
0.46 0.48975 0
0.46 0.4976 0
0.46 0.50545 0
0.46 0.5133 0
0.46 0.52115 0
0.46 0.529 0
0.46 0.53685 0
0.46 0.5447 0
0.46 0.55255 0
0.46 0.5604 0
0.46 0.56825 0
0.46 0.5761 0
0.46 0.58395 0
0.46 0.5918 0
0.46 0.59965 0
0.46 0.6075 0
0.46 0.61535 0
0.46 0.6232 0
0.46 0.63105 0
0.46 0.6389 0
0.46 0.64675 0
0.46 0.6546 0
0.46 0.66245 0
0.46 0.6703 0
0.46 0.67815 0
0.46 0.686 0
0.46 0.69385 0
0.46 0.7017 0
0.46 0.70955 0
0.46 0.7174 0
0.46 0.72525 0
0.46 0.7331 0
0.46 0.74095 0
0.46 0.7488 0
0.46 0.75665 0
0.46 0.7645 0
0.46 0.77235 0
0.46 0.7802 0
0.46 0.78805 0
0.46 0.7959 0
0.46 0.80375 0
0.46 0.8116 0
0.46 0.81945 0
0.46 0.8273 0
0.46 0.83515 0
0.46 0.843 0
0.46 0.85085 0
0.46 0.8587 0
0.46 0.86655 0
0.46 0.8744 0
0.46 0.88225 0
0.46 0.8901 0
0.46 0.89795 0
0.46 0.9058 0
0.46 0.91365 0
0.46 0.9215 0
0.46 0.92935 0
0.46 0.9372 0
0.46 0.94505 0
0.46 0.9529 0
0.46 0.96075 0
0.46 0.9686 0
0.46 0.97645 0
0.46 0.9843 0
0.46 0.99215 0
0.46 1 0
0.48 0.22 0
0.48 0.2278 0
0.48 0.2356 0
0.48 0.2434 0
0.48 0.2512 0
0.48 0.259 0
0.48 0.2668 0
0.48 0.2746 0
0.48 0.2824 0
0.48 0.2902 0
0.48 0.298 0
0.48 0.3058 0
0.48 0.3136 0
0.48 0.3214 0
0.48 0.3292 0
0.48 0.337 0
0.48 0.3448 0
0.48 0.3526 0
0.48 0.3604 0
0.48 0.3682 0
0.48 0.376 0
0.48 0.3838 0
0.48 0.3916 0
0.48 0.3994 0
0.48 0.4072 0
0.48 0.415 0
0.48 0.4228 0
0.48 0.4306 0
0.48 0.4384 0
0.48 0.4462 0
0.48 0.454 0
0.48 0.4618 0
0.48 0.4696 0
0.48 0.4774 0
0.48 0.4852 0
0.48 0.493 0
0.48 0.5008 0
0.48 0.5086 0
0.48 0.5164 0
0.48 0.5242 0
0.48 0.532 0
0.48 0.5398 0
0.48 0.5476 0
0.48 0.5554 0
0.48 0.5632 0
0.48 0.571 0
0.48 0.5788 0
0.48 0.5866 0
0.48 0.5944 0
0.48 0.6022 0
0.48 0.61 0
0.48 0.6178 0
0.48 0.6256 0
0.48 0.6334 0
0.48 0.6412 0
0.48 0.649 0
0.48 0.6568 0
0.48 0.6646 0
0.48 0.6724 0
0.48 0.6802 0
0.48 0.688 0
0.48 0.6958 0
0.48 0.7036 0
0.48 0.7114 0
0.48 0.7192 0
0.48 0.727 0
0.48 0.7348 0
0.48 0.7426 0
0.48 0.7504 0
0.48 0.7582 0
0.48 0.766 0
0.48 0.7738 0
0.48 0.7816 0
0.48 0.7894 0
0.48 0.7972 0
0.48 0.805 0
0.48 0.8128 0
0.48 0.8206 0
0.48 0.8284 0
0.48 0.8362 0
0.48 0.844 0
0.48 0.8518 0
0.48 0.8596 0
0.48 0.8674 0
0.48 0.8752 0
0.48 0.883 0
0.48 0.8908 0
0.48 0.8986 0
0.48 0.9064 0
0.48 0.9142 0
0.48 0.922 0
0.48 0.9298 0
0.48 0.9376 0
0.48 0.9454 0
0.48 0.9532 0
0.48 0.961 0
0.48 0.9688 0
0.48 0.9766 0
0.48 0.9844 0
0.48 0.9922 0
0.48 1 0
0.5 0.225 0
0.5 0.23275 0
0.5 0.2405 0
0.5 0.24825 0
0.5 0.256 0
0.5 0.26375 0
0.5 0.2715 0
0.5 0.27925 0
0.5 0.287 0
0.5 0.29475 0
0.5 0.3025 0
0.5 0.31025 0
0.5 0.318 0
0.5 0.32575 0
0.5 0.3335 0
0.5 0.34125 0
0.5 0.349 0
0.5 0.35675 0
0.5 0.3645 0
0.5 0.37225 0
0.5 0.38 0
0.5 0.38775 0
0.5 0.3955 0
0.5 0.40325 0
0.5 0.411 0
0.5 0.41875 0
0.5 0.4265 0
0.5 0.43425 0
0.5 0.442 0
0.5 0.44975 0
0.5 0.4575 0
0.5 0.46525 0
0.5 0.473 0
0.5 0.48075 0
0.5 0.4885 0
0.5 0.49625 0
0.5 0.504 0
0.5 0.51175 0
0.5 0.5195 0
0.5 0.52725 0
0.5 0.535 0
0.5 0.54275 0
0.5 0.5505 0
0.5 0.55825 0
0.5 0.566 0
0.5 0.57375 0
0.5 0.5815 0
0.5 0.58925 0
0.5 0.597 0
0.5 0.60475 0
0.5 0.6125 0
0.5 0.62025 0
0.5 0.628 0
0.5 0.63575 0
0.5 0.6435 0
0.5 0.65125 0
0.5 0.659 0
0.5 0.66675 0
0.5 0.6745 0
0.5 0.68225 0
0.5 0.69 0
0.5 0.69775 0
0.5 0.7055 0
0.5 0.71325 0
0.5 0.721 0
0.5 0.72875 0
0.5 0.7365 0
0.5 0.74425 0
0.5 0.752 0
0.5 0.75975 0
0.5 0.7675 0
0.5 0.77525 0
0.5 0.783 0
0.5 0.79075 0
0.5 0.7985 0
0.5 0.80625 0
0.5 0.814 0
0.5 0.82175 0
0.5 0.8295 0
0.5 0.83725 0
0.5 0.845 0
0.5 0.85275 0
0.5 0.8605 0
0.5 0.86825 0
0.5 0.876 0
0.5 0.88375 0
0.5 0.8915 0
0.5 0.89925 0
0.5 0.907 0
0.5 0.91475 0
0.5 0.9225 0
0.5 0.93025 0
0.5 0.938 0
0.5 0.94575 0
0.5 0.9535 0
0.5 0.96125 0
0.5 0.969 0
0.5 0.97675 0
0.5 0.9845 0
0.5 0.99225 0
0.5 1 0
0.52 0.23 0
0.52 0.2377 0
0.52 0.2454 0
0.52 0.2531 0
0.52 0.2608 0
0.52 0.2685 0
0.52 0.2762 0
0.52 0.2839 0
0.52 0.2916 0
0.52 0.2993 0
0.52 0.307 0
0.52 0.3147 0
0.52 0.3224 0
0.52 0.3301 0
0.52 0.3378 0
0.52 0.3455 0
0.52 0.3532 0
0.52 0.3609 0
0.52 0.3686 0
0.52 0.3763 0
0.52 0.384 0
0.52 0.3917 0
0.52 0.3994 0
0.52 0.4071 0
0.52 0.4148 0
0.52 0.4225 0
0.52 0.4302 0
0.52 0.4379 0
0.52 0.4456 0
0.52 0.4533 0
0.52 0.461 0
0.52 0.4687 0
0.52 0.4764 0
0.52 0.4841 0
0.52 0.4918 0
0.52 0.4995 0
0.52 0.5072 0
0.52 0.5149 0
0.52 0.5226 0
0.52 0.5303 0
0.52 0.538 0
0.52 0.5457 0
0.52 0.5534 0
0.52 0.5611 0
0.52 0.5688 0
0.52 0.5765 0
0.52 0.5842 0
0.52 0.5919 0
0.52 0.5996 0
0.52 0.6073 0
0.52 0.615 0
0.52 0.6227 0
0.52 0.6304 0
0.52 0.6381 0
0.52 0.6458 0
0.52 0.6535 0
0.52 0.6612 0
0.52 0.6689 0
0.52 0.6766 0
0.52 0.6843 0
0.52 0.692 0
0.52 0.6997 0
0.52 0.7074 0
0.52 0.7151 0
0.52 0.7228 0
0.52 0.7305 0
0.52 0.7382 0
0.52 0.7459 0
0.52 0.7536 0
0.52 0.7613 0
0.52 0.769 0
0.52 0.7767 0
0.52 0.7844 0
0.52 0.7921 0
0.52 0.7998 0
0.52 0.8075 0
0.52 0.8152 0
0.52 0.8229 0
0.52 0.8306 0
0.52 0.8383 0
0.52 0.846 0
0.52 0.8537 0
0.52 0.8614 0
0.52 0.8691 0
0.52 0.8768 0
0.52 0.8845 0
0.52 0.8922 0
0.52 0.8999 0
0.52 0.9076 0
0.52 0.9153 0
0.52 0.923 0
0.52 0.9307 0
0.52 0.9384 0
0.52 0.9461 0
0.52 0.9538 0
0.52 0.9615 0
0.52 0.9692 0
0.52 0.9769 0
0.52 0.9846 0
0.52 0.9923 0
0.52 1 0
0.54 0.235 0
0.54 0.24265 0
0.54 0.2503 0
0.54 0.25795 0
0.54 0.2656 0
0.54 0.27325 0
0.54 0.2809 0
0.54 0.28855 0
0.54 0.2962 0
0.54 0.30385 0
0.54 0.3115 0
0.54 0.31915 0
0.54 0.3268 0
0.54 0.33445 0
0.54 0.3421 0
0.54 0.34975 0
0.54 0.3574 0
0.54 0.36505 0
0.54 0.3727 0
0.54 0.38035 0
0.54 0.388 0
0.54 0.39565 0
0.54 0.4033 0
0.54 0.41095 0
0.54 0.4186 0
0.54 0.42625 0
0.54 0.4339 0
0.54 0.44155 0
0.54 0.4492 0
0.54 0.45685 0
0.54 0.4645 0
0.54 0.47215 0
0.54 0.4798 0
0.54 0.48745 0
0.54 0.4951 0
0.54 0.50275 0
0.54 0.5104 0
0.54 0.51805 0
0.54 0.5257 0
0.54 0.53335 0
0.54 0.541 0
0.54 0.54865 0
0.54 0.5563 0
0.54 0.56395 0
0.54 0.5716 0
0.54 0.57925 0
0.54 0.5869 0
0.54 0.59455 0
0.54 0.6022 0
0.54 0.60985 0
0.54 0.6175 0
0.54 0.62515 0
0.54 0.6328 0
0.54 0.64045 0
0.54 0.6481 0
0.54 0.65575 0
0.54 0.6634 0
0.54 0.67105 0
0.54 0.6787 0
0.54 0.68635 0
0.54 0.694 0
0.54 0.70165 0
0.54 0.7093 0
0.54 0.71695 0
0.54 0.7246 0
0.54 0.73225 0
0.54 0.7399 0
0.54 0.74755 0
0.54 0.7552 0
0.54 0.76285 0
0.54 0.7705 0
0.54 0.77815 0
0.54 0.7858 0
0.54 0.79345 0
0.54 0.8011 0
0.54 0.80875 0
0.54 0.8164 0
0.54 0.82405 0
0.54 0.8317 0
0.54 0.83935 0
0.54 0.847 0
0.54 0.85465 0
0.54 0.8623 0
0.54 0.86995 0
0.54 0.8776 0
0.54 0.88525 0
0.54 0.8929 0
0.54 0.90055 0
0.54 0.9082 0
0.54 0.91585 0
0.54 0.9235 0
0.54 0.93115 0
0.54 0.9388 0
0.54 0.94645 0
0.54 0.9541 0
0.54 0.96175 0
0.54 0.9694 0
0.54 0.97705 0
0.54 0.9847 0
0.54 0.99235 0
0.54 1 0
0.56 0.24 0
0.56 0.2476 0
0.56 0.2552 0
0.56 0.2628 0
0.56 0.2704 0
0.56 0.278 0
0.56 0.2856 0
0.56 0.2932 0
0.56 0.3008 0
0.56 0.3084 0
0.56 0.316 0
0.56 0.3236 0
0.56 0.3312 0
0.56 0.3388 0
0.56 0.3464 0
0.56 0.354 0
0.56 0.3616 0
0.56 0.3692 0
0.56 0.3768 0
0.56 0.3844 0
0.56 0.392 0
0.56 0.3996 0
0.56 0.4072 0
0.56 0.4148 0
0.56 0.4224 0
0.56 0.43 0
0.56 0.4376 0
0.56 0.4452 0
0.56 0.4528 0
0.56 0.4604 0
0.56 0.468 0
0.56 0.4756 0
0.56 0.4832 0
0.56 0.4908 0
0.56 0.4984 0
0.56 0.506 0
0.56 0.5136 0
0.56 0.5212 0
0.56 0.5288 0
0.56 0.5364 0
0.56 0.544 0
0.56 0.5516 0
0.56 0.5592 0
0.56 0.5668 0
0.56 0.5744 0
0.56 0.582 0
0.56 0.5896 0
0.56 0.5972 0
0.56 0.6048 0
0.56 0.6124 0
0.56 0.62 0
0.56 0.6276 0
0.56 0.6352 0
0.56 0.6428 0
0.56 0.6504 0
0.56 0.658 0
0.56 0.6656 0
0.56 0.6732 0
0.56 0.6808 0
0.56 0.6884 0
0.56 0.696 0
0.56 0.7036 0
0.56 0.7112 0
0.56 0.7188 0
0.56 0.7264 0
0.56 0.734 0
0.56 0.7416 0
0.56 0.7492 0
0.56 0.7568 0
0.56 0.7644 0
0.56 0.772 0
0.56 0.7796 0
0.56 0.7872 0
0.56 0.7948 0
0.56 0.8024 0
0.56 0.81 0
0.56 0.8176 0
0.56 0.8252 0
0.56 0.8328 0
0.56 0.8404 0
0.56 0.848 0
0.56 0.8556 0
0.56 0.8632 0
0.56 0.8708 0
0.56 0.8784 0
0.56 0.886 0
0.56 0.8936 0
0.56 0.9012 0
0.56 0.9088 0
0.56 0.9164 0
0.56 0.924 0
0.56 0.9316 0
0.56 0.9392 0
0.56 0.9468 0
0.56 0.9544 0
0.56 0.962 0
0.56 0.9696 0
0.56 0.9772 0
0.56 0.9848 0
0.56 0.9924 0
0.56 1 0
0.58 0.245 0
0.58 0.25255 0
0.58 0.2601 0
0.58 0.26765 0
0.58 0.2752 0
0.58 0.28275 0
0.58 0.2903 0
0.58 0.29785 0
0.58 0.3054 0
0.58 0.31295 0
0.58 0.3205 0
0.58 0.32805 0
0.58 0.3356 0
0.58 0.34315 0
0.58 0.3507 0
0.58 0.35825 0
0.58 0.3658 0
0.58 0.37335 0
0.58 0.3809 0
0.58 0.38845 0
0.58 0.396 0
0.58 0.40355 0
0.58 0.4111 0
0.58 0.41865 0
0.58 0.4262 0
0.58 0.43375 0
0.58 0.4413 0
0.58 0.44885 0
0.58 0.4564 0
0.58 0.46395 0
0.58 0.4715 0
0.58 0.47905 0
0.58 0.4866 0
0.58 0.49415 0
0.58 0.5017 0
0.58 0.50925 0
0.58 0.5168 0
0.58 0.52435 0
0.58 0.5319 0
0.58 0.53945 0
0.58 0.547 0
0.58 0.55455 0
0.58 0.5621 0
0.58 0.56965 0
0.58 0.5772 0
0.58 0.58475 0
0.58 0.5923 0
0.58 0.59985 0
0.58 0.6074 0
0.58 0.61495 0
0.58 0.6225 0
0.58 0.63005 0
0.58 0.6376 0
0.58 0.64515 0
0.58 0.6527 0
0.58 0.66025 0
0.58 0.6678 0
0.58 0.67535 0
0.58 0.6829 0
0.58 0.69045 0
0.58 0.698 0
0.58 0.70555 0
0.58 0.7131 0
0.58 0.72065 0
0.58 0.7282 0
0.58 0.73575 0
0.58 0.7433 0
0.58 0.75085 0
0.58 0.7584 0
0.58 0.76595 0
0.58 0.7735 0
0.58 0.78105 0
0.58 0.7886 0
0.58 0.79615 0
0.58 0.8037 0
0.58 0.81125 0
0.58 0.8188 0
0.58 0.82635 0
0.58 0.8339 0
0.58 0.84145 0
0.58 0.849 0
0.58 0.85655 0
0.58 0.8641 0
0.58 0.87165 0
0.58 0.8792 0
0.58 0.88675 0
0.58 0.8943 0
0.58 0.90185 0
0.58 0.9094 0
0.58 0.91695 0
0.58 0.9245 0
0.58 0.93205 0
0.58 0.9396 0
0.58 0.94715 0
0.58 0.9547 0
0.58 0.96225 0
0.58 0.9698 0
0.58 0.97735 0
0.58 0.9849 0
0.58 0.99245 0
0.58 1 0
0.6 0.25 0
0.6 0.2575 0
0.6 0.265 0
0.6 0.2725 0
0.6 0.28 0
0.6 0.2875 0
0.6 0.295 0
0.6 0.3025 0
0.6 0.31 0
0.6 0.3175 0
0.6 0.325 0
0.6 0.3325 0
0.6 0.34 0
0.6 0.3475 0
0.6 0.355 0
0.6 0.3625 0
0.6 0.37 0
0.6 0.3775 0
0.6 0.385 0
0.6 0.3925 0
0.6 0.4 0
0.6 0.4075 0
0.6 0.415 0
0.6 0.4225 0
0.6 0.43 0
0.6 0.4375 0
0.6 0.445 0
0.6 0.4525 0
0.6 0.46 0
0.6 0.4675 0
0.6 0.475 0
0.6 0.4825 0
0.6 0.49 0
0.6 0.4975 0
0.6 0.505 0
0.6 0.5125 0
0.6 0.52 0
0.6 0.5275 0
0.6 0.535 0
0.6 0.5425 0
0.6 0.55 0
0.6 0.5575 0
0.6 0.565 0
0.6 0.5725 0
0.6 0.58 0
0.6 0.5875 0
0.6 0.595 0
0.6 0.6025 0
0.6 0.61 0
0.6 0.6175 0
0.6 0.625 0
0.6 0.6325 0
0.6 0.64 0
0.6 0.6475 0
0.6 0.655 0
0.6 0.6625 0
0.6 0.67 0
0.6 0.6775 0
0.6 0.685 0
0.6 0.6925 0
0.6 0.7 0
0.6 0.7075 0
0.6 0.715 0
0.6 0.7225 0
0.6 0.73 0
0.6 0.7375 0
0.6 0.745 0
0.6 0.7525 0
0.6 0.76 0
0.6 0.7675 0
0.6 0.775 0
0.6 0.7825 0
0.6 0.79 0
0.6 0.7975 0
0.6 0.805 0
0.6 0.8125 0
0.6 0.82 0
0.6 0.8275 0
0.6 0.835 0
0.6 0.8425 0
0.6 0.85 0
0.6 0.8575 0
0.6 0.865 0
0.6 0.8725 0
0.6 0.88 0
0.6 0.8875 0
0.6 0.895 0
0.6 0.9025 0
0.6 0.91 0
0.6 0.9175 0
0.6 0.925 0
0.6 0.9325 0
0.6 0.94 0
0.6 0.9475 0
0.6 0.955 0
0.6 0.9625 0
0.6 0.97 0
0.6 0.9775 0
0.6 0.985 0
0.6 0.9925 0
0.6 1 0
0.62 0.255 0
0.62 0.26245 0
0.62 0.2699 0
0.62 0.27735 0
0.62 0.2848 0
0.62 0.29225 0
0.62 0.2997 0
0.62 0.30715 0
0.62 0.3146 0
0.62 0.32205 0
0.62 0.3295 0
0.62 0.33695 0
0.62 0.3444 0
0.62 0.35185 0
0.62 0.3593 0
0.62 0.36675 0
0.62 0.3742 0
0.62 0.38165 0
0.62 0.3891 0
0.62 0.39655 0
0.62 0.404 0
0.62 0.41145 0
0.62 0.4189 0
0.62 0.42635 0
0.62 0.4338 0
0.62 0.44125 0
0.62 0.4487 0
0.62 0.45615 0
0.62 0.4636 0
0.62 0.47105 0
0.62 0.4785 0
0.62 0.48595 0
0.62 0.4934 0
0.62 0.50085 0
0.62 0.5083 0
0.62 0.51575 0
0.62 0.5232 0
0.62 0.53065 0
0.62 0.5381 0
0.62 0.54555 0
0.62 0.553 0
0.62 0.56045 0
0.62 0.5679 0
0.62 0.57535 0
0.62 0.5828 0
0.62 0.59025 0
0.62 0.5977 0
0.62 0.60515 0
0.62 0.6126 0
0.62 0.62005 0
0.62 0.6275 0
0.62 0.63495 0
0.62 0.6424 0
0.62 0.64985 0
0.62 0.6573 0
0.62 0.66475 0
0.62 0.6722 0
0.62 0.67965 0
0.62 0.6871 0
0.62 0.69455 0
0.62 0.702 0
0.62 0.70945 0
0.62 0.7169 0
0.62 0.72435 0
0.62 0.7318 0
0.62 0.73925 0
0.62 0.7467 0
0.62 0.75415 0
0.62 0.7616 0
0.62 0.76905 0
0.62 0.7765 0
0.62 0.78395 0
0.62 0.7914 0
0.62 0.79885 0
0.62 0.8063 0
0.62 0.81375 0
0.62 0.8212 0
0.62 0.82865 0
0.62 0.8361 0
0.62 0.84355 0
0.62 0.851 0
0.62 0.85845 0
0.62 0.8659 0
0.62 0.87335 0
0.62 0.8808 0
0.62 0.88825 0
0.62 0.8957 0
0.62 0.90315 0
0.62 0.9106 0
0.62 0.91805 0
0.62 0.9255 0
0.62 0.93295 0
0.62 0.9404 0
0.62 0.94785 0
0.62 0.9553 0
0.62 0.96275 0
0.62 0.9702 0
0.62 0.97765 0
0.62 0.9851 0
0.62 0.99255 0
0.62 1 0
0.64 0.26 0
0.64 0.2674 0
0.64 0.2748 0
0.64 0.2822 0
0.64 0.2896 0
0.64 0.297 0
0.64 0.3044 0
0.64 0.3118 0
0.64 0.3192 0
0.64 0.3266 0
0.64 0.334 0
0.64 0.3414 0
0.64 0.3488 0
0.64 0.3562 0
0.64 0.3636 0
0.64 0.371 0
0.64 0.3784 0
0.64 0.3858 0
0.64 0.3932 0
0.64 0.4006 0
0.64 0.408 0
0.64 0.4154 0
0.64 0.4228 0
0.64 0.4302 0
0.64 0.4376 0
0.64 0.445 0
0.64 0.4524 0
0.64 0.4598 0
0.64 0.4672 0
0.64 0.4746 0
0.64 0.482 0
0.64 0.4894 0
0.64 0.4968 0
0.64 0.5042 0
0.64 0.5116 0
0.64 0.519 0
0.64 0.5264 0
0.64 0.5338 0
0.64 0.5412 0
0.64 0.5486 0
0.64 0.556 0
0.64 0.5634 0
0.64 0.5708 0
0.64 0.5782 0
0.64 0.5856 0
0.64 0.593 0
0.64 0.6004 0
0.64 0.6078 0
0.64 0.6152 0
0.64 0.6226 0
0.64 0.63 0
0.64 0.6374 0
0.64 0.6448 0
0.64 0.6522 0
0.64 0.6596 0
0.64 0.667 0
0.64 0.6744 0
0.64 0.6818 0
0.64 0.6892 0
0.64 0.6966 0
0.64 0.704 0
0.64 0.7114 0
0.64 0.7188 0
0.64 0.7262 0
0.64 0.7336 0
0.64 0.741 0
0.64 0.7484 0
0.64 0.7558 0
0.64 0.7632 0
0.64 0.7706 0
0.64 0.778 0
0.64 0.7854 0
0.64 0.7928 0
0.64 0.8002 0
0.64 0.8076 0
0.64 0.815 0
0.64 0.8224 0
0.64 0.8298 0
0.64 0.8372 0
0.64 0.8446 0
0.64 0.852 0
0.64 0.8594 0
0.64 0.8668 0
0.64 0.8742 0
0.64 0.8816 0
0.64 0.889 0
0.64 0.8964 0
0.64 0.9038 0
0.64 0.9112 0
0.64 0.9186 0
0.64 0.926 0
0.64 0.9334 0
0.64 0.9408 0
0.64 0.9482 0
0.64 0.9556 0
0.64 0.963 0
0.64 0.9704 0
0.64 0.9778 0
0.64 0.9852 0
0.64 0.9926 0
0.64 1 0
0.66 0.265 0
0.66 0.27235 0
0.66 0.2797 0
0.66 0.28705 0
0.66 0.2944 0
0.66 0.30175 0
0.66 0.3091 0
0.66 0.31645 0
0.66 0.3238 0
0.66 0.33115 0
0.66 0.3385 0
0.66 0.34585 0
0.66 0.3532 0
0.66 0.36055 0
0.66 0.3679 0
0.66 0.37525 0
0.66 0.3826 0
0.66 0.38995 0
0.66 0.3973 0
0.66 0.40465 0
0.66 0.412 0
0.66 0.41935 0
0.66 0.4267 0
0.66 0.43405 0
0.66 0.4414 0
0.66 0.44875 0
0.66 0.4561 0
0.66 0.46345 0
0.66 0.4708 0
0.66 0.47815 0
0.66 0.4855 0
0.66 0.49285 0
0.66 0.5002 0
0.66 0.50755 0
0.66 0.5149 0
0.66 0.52225 0
0.66 0.5296 0
0.66 0.53695 0
0.66 0.5443 0
0.66 0.55165 0
0.66 0.559 0
0.66 0.56635 0
0.66 0.5737 0
0.66 0.58105 0
0.66 0.5884 0
0.66 0.59575 0
0.66 0.6031 0
0.66 0.61045 0
0.66 0.6178 0
0.66 0.62515 0
0.66 0.6325 0
0.66 0.63985 0
0.66 0.6472 0
0.66 0.65455 0
0.66 0.6619 0
0.66 0.66925 0
0.66 0.6766 0
0.66 0.68395 0
0.66 0.6913 0
0.66 0.69865 0
0.66 0.706 0
0.66 0.71335 0
0.66 0.7207 0
0.66 0.72805 0
0.66 0.7354 0
0.66 0.74275 0
0.66 0.7501 0
0.66 0.75745 0
0.66 0.7648 0
0.66 0.77215 0
0.66 0.7795 0
0.66 0.78685 0
0.66 0.7942 0
0.66 0.80155 0
0.66 0.8089 0
0.66 0.81625 0
0.66 0.8236 0
0.66 0.83095 0
0.66 0.8383 0
0.66 0.84565 0
0.66 0.853 0
0.66 0.86035 0
0.66 0.8677 0
0.66 0.87505 0
0.66 0.8824 0
0.66 0.88975 0
0.66 0.8971 0
0.66 0.90445 0
0.66 0.9118 0
0.66 0.91915 0
0.66 0.9265 0
0.66 0.93385 0
0.66 0.9412 0
0.66 0.94855 0
0.66 0.9559 0
0.66 0.96325 0
0.66 0.9706 0
0.66 0.97795 0
0.66 0.9853 0
0.66 0.99265 0
0.66 1 0
0.68 0.27 0
0.68 0.2773 0
0.68 0.2846 0
0.68 0.2919 0
0.68 0.2992 0
0.68 0.3065 0
0.68 0.3138 0
0.68 0.3211 0
0.68 0.3284 0
0.68 0.3357 0
0.68 0.343 0
0.68 0.3503 0
0.68 0.3576 0
0.68 0.3649 0
0.68 0.3722 0
0.68 0.3795 0
0.68 0.3868 0
0.68 0.3941 0
0.68 0.4014 0
0.68 0.4087 0
0.68 0.416 0
0.68 0.4233 0
0.68 0.4306 0
0.68 0.4379 0
0.68 0.4452 0
0.68 0.4525 0
0.68 0.4598 0
0.68 0.4671 0
0.68 0.4744 0
0.68 0.4817 0
0.68 0.489 0
0.68 0.4963 0
0.68 0.5036 0
0.68 0.5109 0
0.68 0.5182 0
0.68 0.5255 0
0.68 0.5328 0
0.68 0.5401 0
0.68 0.5474 0
0.68 0.5547 0
0.68 0.562 0
0.68 0.5693 0
0.68 0.5766 0
0.68 0.5839 0
0.68 0.5912 0
0.68 0.5985 0
0.68 0.6058 0
0.68 0.6131 0
0.68 0.6204 0
0.68 0.6277 0
0.68 0.635 0
0.68 0.6423 0
0.68 0.6496 0
0.68 0.6569 0
0.68 0.6642 0
0.68 0.6715 0
0.68 0.6788 0
0.68 0.6861 0
0.68 0.6934 0
0.68 0.7007 0
0.68 0.708 0
0.68 0.7153 0
0.68 0.7226 0
0.68 0.7299 0
0.68 0.7372 0
0.68 0.7445 0
0.68 0.7518 0
0.68 0.7591 0
0.68 0.7664 0
0.68 0.7737 0
0.68 0.781 0
0.68 0.7883 0
0.68 0.7956 0
0.68 0.8029 0
0.68 0.8102 0
0.68 0.8175 0
0.68 0.8248 0
0.68 0.8321 0
0.68 0.8394 0
0.68 0.8467 0
0.68 0.854 0
0.68 0.8613 0
0.68 0.8686 0
0.68 0.8759 0
0.68 0.8832 0
0.68 0.8905 0
0.68 0.8978 0
0.68 0.9051 0
0.68 0.9124 0
0.68 0.9197 0
0.68 0.927 0
0.68 0.9343 0
0.68 0.9416 0
0.68 0.9489 0
0.68 0.9562 0
0.68 0.9635 0
0.68 0.9708 0
0.68 0.9781 0
0.68 0.9854 0
0.68 0.9927 0
0.68 1 0
0.7 0.275 0
0.7 0.28225 0
0.7 0.2895 0
0.7 0.29675 0
0.7 0.304 0
0.7 0.31125 0
0.7 0.3185 0
0.7 0.32575 0
0.7 0.333 0
0.7 0.34025 0
0.7 0.3475 0
0.7 0.35475 0
0.7 0.362 0
0.7 0.36925 0
0.7 0.3765 0
0.7 0.38375 0
0.7 0.391 0
0.7 0.39825 0
0.7 0.4055 0
0.7 0.41275 0
0.7 0.42 0
0.7 0.42725 0
0.7 0.4345 0
0.7 0.44175 0
0.7 0.449 0
0.7 0.45625 0
0.7 0.4635 0
0.7 0.47075 0
0.7 0.478 0
0.7 0.48525 0
0.7 0.4925 0
0.7 0.49975 0
0.7 0.507 0
0.7 0.51425 0
0.7 0.5215 0
0.7 0.52875 0
0.7 0.536 0
0.7 0.54325 0
0.7 0.5505 0
0.7 0.55775 0
0.7 0.565 0
0.7 0.57225 0
0.7 0.5795 0
0.7 0.58675 0
0.7 0.594 0
0.7 0.60125 0
0.7 0.6085 0
0.7 0.61575 0
0.7 0.623 0
0.7 0.63025 0
0.7 0.6375 0
0.7 0.64475 0
0.7 0.652 0
0.7 0.65925 0
0.7 0.6665 0
0.7 0.67375 0
0.7 0.681 0
0.7 0.68825 0
0.7 0.6955 0
0.7 0.70275 0
0.7 0.71 0
0.7 0.71725 0
0.7 0.7245 0
0.7 0.73175 0
0.7 0.739 0
0.7 0.74625 0
0.7 0.7535 0
0.7 0.76075 0
0.7 0.768 0
0.7 0.77525 0
0.7 0.7825 0
0.7 0.78975 0
0.7 0.797 0
0.7 0.80425 0
0.7 0.8115 0
0.7 0.81875 0
0.7 0.826 0
0.7 0.83325 0
0.7 0.8405 0
0.7 0.84775 0
0.7 0.855 0
0.7 0.86225 0
0.7 0.8695 0
0.7 0.87675 0
0.7 0.884 0
0.7 0.89125 0
0.7 0.8985 0
0.7 0.90575 0
0.7 0.913 0
0.7 0.92025 0
0.7 0.9275 0
0.7 0.93475 0
0.7 0.942 0
0.7 0.94925 0
0.7 0.9565 0
0.7 0.96375 0
0.7 0.971 0
0.7 0.97825 0
0.7 0.9855 0
0.7 0.99275 0
0.7 1 0
0.72 0.28 0
0.72 0.2872 0
0.72 0.2944 0
0.72 0.3016 0
0.72 0.3088 0
0.72 0.316 0
0.72 0.3232 0
0.72 0.3304 0
0.72 0.3376 0
0.72 0.3448 0
0.72 0.352 0
0.72 0.3592 0
0.72 0.3664 0
0.72 0.3736 0
0.72 0.3808 0
0.72 0.388 0
0.72 0.3952 0
0.72 0.4024 0
0.72 0.4096 0
0.72 0.4168 0
0.72 0.424 0
0.72 0.4312 0
0.72 0.4384 0
0.72 0.4456 0
0.72 0.4528 0
0.72 0.46 0
0.72 0.4672 0
0.72 0.4744 0
0.72 0.4816 0
0.72 0.4888 0
0.72 0.496 0
0.72 0.5032 0
0.72 0.5104 0
0.72 0.5176 0
0.72 0.5248 0
0.72 0.532 0
0.72 0.5392 0
0.72 0.5464 0
0.72 0.5536 0
0.72 0.5608 0
0.72 0.568 0
0.72 0.5752 0
0.72 0.5824 0
0.72 0.5896 0
0.72 0.5968 0
0.72 0.604 0
0.72 0.6112 0
0.72 0.6184 0
0.72 0.6256 0
0.72 0.6328 0
0.72 0.64 0
0.72 0.6472 0
0.72 0.6544 0
0.72 0.6616 0
0.72 0.6688 0
0.72 0.676 0
0.72 0.6832 0
0.72 0.6904 0
0.72 0.6976 0
0.72 0.7048 0
0.72 0.712 0
0.72 0.7192 0
0.72 0.7264 0
0.72 0.7336 0
0.72 0.7408 0
0.72 0.748 0
0.72 0.7552 0
0.72 0.7624 0
0.72 0.7696 0
0.72 0.7768 0
0.72 0.784 0
0.72 0.7912 0
0.72 0.7984 0
0.72 0.8056 0
0.72 0.8128 0
0.72 0.82 0
0.72 0.8272 0
0.72 0.8344 0
0.72 0.8416 0
0.72 0.8488 0
0.72 0.856 0
0.72 0.8632 0
0.72 0.8704 0
0.72 0.8776 0
0.72 0.8848 0
0.72 0.892 0
0.72 0.8992 0
0.72 0.9064 0
0.72 0.9136 0
0.72 0.9208 0
0.72 0.928 0
0.72 0.9352 0
0.72 0.9424 0
0.72 0.9496 0
0.72 0.9568 0
0.72 0.964 0
0.72 0.9712 0
0.72 0.9784 0
0.72 0.9856 0
0.72 0.9928 0
0.72 1 0
0.74 0.285 0
0.74 0.29215 0
0.74 0.2993 0
0.74 0.30645 0
0.74 0.3136 0
0.74 0.32075 0
0.74 0.3279 0
0.74 0.33505 0
0.74 0.3422 0
0.74 0.34935 0
0.74 0.3565 0
0.74 0.36365 0
0.74 0.3708 0
0.74 0.37795 0
0.74 0.3851 0
0.74 0.39225 0
0.74 0.3994 0
0.74 0.40655 0
0.74 0.4137 0
0.74 0.42085 0
0.74 0.428 0
0.74 0.43515 0
0.74 0.4423 0
0.74 0.44945 0
0.74 0.4566 0
0.74 0.46375 0
0.74 0.4709 0
0.74 0.47805 0
0.74 0.4852 0
0.74 0.49235 0
0.74 0.4995 0
0.74 0.50665 0
0.74 0.5138 0
0.74 0.52095 0
0.74 0.5281 0
0.74 0.53525 0
0.74 0.5424 0
0.74 0.54955 0
0.74 0.5567 0
0.74 0.56385 0
0.74 0.571 0
0.74 0.57815 0
0.74 0.5853 0
0.74 0.59245 0
0.74 0.5996 0
0.74 0.60675 0
0.74 0.6139 0
0.74 0.62105 0
0.74 0.6282 0
0.74 0.63535 0
0.74 0.6425 0
0.74 0.64965 0
0.74 0.6568 0
0.74 0.66395 0
0.74 0.6711 0
0.74 0.67825 0
0.74 0.6854 0
0.74 0.69255 0
0.74 0.6997 0
0.74 0.70685 0
0.74 0.714 0
0.74 0.72115 0
0.74 0.7283 0
0.74 0.73545 0
0.74 0.7426 0
0.74 0.74975 0
0.74 0.7569 0
0.74 0.76405 0
0.74 0.7712 0
0.74 0.77835 0
0.74 0.7855 0
0.74 0.79265 0
0.74 0.7998 0
0.74 0.80695 0
0.74 0.8141 0
0.74 0.82125 0
0.74 0.8284 0
0.74 0.83555 0
0.74 0.8427 0
0.74 0.84985 0
0.74 0.857 0
0.74 0.86415 0
0.74 0.8713 0
0.74 0.87845 0
0.74 0.8856 0
0.74 0.89275 0
0.74 0.8999 0
0.74 0.90705 0
0.74 0.9142 0
0.74 0.92135 0
0.74 0.9285 0
0.74 0.93565 0
0.74 0.9428 0
0.74 0.94995 0
0.74 0.9571 0
0.74 0.96425 0
0.74 0.9714 0
0.74 0.97855 0
0.74 0.9857 0
0.74 0.99285 0
0.74 1 0
0.76 0.29 0
0.76 0.2971 0
0.76 0.3042 0
0.76 0.3113 0
0.76 0.3184 0
0.76 0.3255 0
0.76 0.3326 0
0.76 0.3397 0
0.76 0.3468 0
0.76 0.3539 0
0.76 0.361 0
0.76 0.3681 0
0.76 0.3752 0
0.76 0.3823 0
0.76 0.3894 0
0.76 0.3965 0
0.76 0.4036 0
0.76 0.4107 0
0.76 0.4178 0
0.76 0.4249 0
0.76 0.432 0
0.76 0.4391 0
0.76 0.4462 0
0.76 0.4533 0
0.76 0.4604 0
0.76 0.4675 0
0.76 0.4746 0
0.76 0.4817 0
0.76 0.4888 0
0.76 0.4959 0
0.76 0.503 0
0.76 0.5101 0
0.76 0.5172 0
0.76 0.5243 0
0.76 0.5314 0
0.76 0.5385 0
0.76 0.5456 0
0.76 0.5527 0
0.76 0.5598 0
0.76 0.5669 0
0.76 0.574 0
0.76 0.5811 0
0.76 0.5882 0
0.76 0.5953 0
0.76 0.6024 0
0.76 0.6095 0
0.76 0.6166 0
0.76 0.6237 0
0.76 0.6308 0
0.76 0.6379 0
0.76 0.645 0
0.76 0.6521 0
0.76 0.6592 0
0.76 0.6663 0
0.76 0.6734 0
0.76 0.6805 0
0.76 0.6876 0
0.76 0.6947 0
0.76 0.7018 0
0.76 0.7089 0
0.76 0.716 0
0.76 0.7231 0
0.76 0.7302 0
0.76 0.7373 0
0.76 0.7444 0
0.76 0.7515 0
0.76 0.7586 0
0.76 0.7657 0
0.76 0.7728 0
0.76 0.7799 0
0.76 0.787 0
0.76 0.7941 0
0.76 0.8012 0
0.76 0.8083 0
0.76 0.8154 0
0.76 0.8225 0
0.76 0.8296 0
0.76 0.8367 0
0.76 0.8438 0
0.76 0.8509 0
0.76 0.858 0
0.76 0.8651 0
0.76 0.8722 0
0.76 0.8793 0
0.76 0.8864 0
0.76 0.8935 0
0.76 0.9006 0
0.76 0.9077 0
0.76 0.9148 0
0.76 0.9219 0
0.76 0.929 0
0.76 0.9361 0
0.76 0.9432 0
0.76 0.9503 0
0.76 0.9574 0
0.76 0.9645 0
0.76 0.9716 0
0.76 0.9787 0
0.76 0.9858 0
0.76 0.9929 0
0.76 1 0
0.78 0.295 0
0.78 0.30205 0
0.78 0.3091 0
0.78 0.31615 0
0.78 0.3232 0
0.78 0.33025 0
0.78 0.3373 0
0.78 0.34435 0
0.78 0.3514 0
0.78 0.35845 0
0.78 0.3655 0
0.78 0.37255 0
0.78 0.3796 0
0.78 0.38665 0
0.78 0.3937 0
0.78 0.40075 0
0.78 0.4078 0
0.78 0.41485 0
0.78 0.4219 0
0.78 0.42895 0
0.78 0.436 0
0.78 0.44305 0
0.78 0.4501 0
0.78 0.45715 0
0.78 0.4642 0
0.78 0.47125 0
0.78 0.4783 0
0.78 0.48535 0
0.78 0.4924 0
0.78 0.49945 0
0.78 0.5065 0
0.78 0.51355 0
0.78 0.5206 0
0.78 0.52765 0
0.78 0.5347 0
0.78 0.54175 0
0.78 0.5488 0
0.78 0.55585 0
0.78 0.5629 0
0.78 0.56995 0
0.78 0.577 0
0.78 0.58405 0
0.78 0.5911 0
0.78 0.59815 0
0.78 0.6052 0
0.78 0.61225 0
0.78 0.6193 0
0.78 0.62635 0
0.78 0.6334 0
0.78 0.64045 0
0.78 0.6475 0
0.78 0.65455 0
0.78 0.6616 0
0.78 0.66865 0
0.78 0.6757 0
0.78 0.68275 0
0.78 0.6898 0
0.78 0.69685 0
0.78 0.7039 0
0.78 0.71095 0
0.78 0.718 0
0.78 0.72505 0
0.78 0.7321 0
0.78 0.73915 0
0.78 0.7462 0
0.78 0.75325 0
0.78 0.7603 0
0.78 0.76735 0
0.78 0.7744 0
0.78 0.78145 0
0.78 0.7885 0
0.78 0.79555 0
0.78 0.8026 0
0.78 0.80965 0
0.78 0.8167 0
0.78 0.82375 0
0.78 0.8308 0
0.78 0.83785 0
0.78 0.8449 0
0.78 0.85195 0
0.78 0.859 0
0.78 0.86605 0
0.78 0.8731 0
0.78 0.88015 0
0.78 0.8872 0
0.78 0.89425 0
0.78 0.9013 0
0.78 0.90835 0
0.78 0.9154 0
0.78 0.92245 0
0.78 0.9295 0
0.78 0.93655 0
0.78 0.9436 0
0.78 0.95065 0
0.78 0.9577 0
0.78 0.96475 0
0.78 0.9718 0
0.78 0.97885 0
0.78 0.9859 0
0.78 0.99295 0
0.78 1 0
0.8 0.3 0
0.8 0.307 0
0.8 0.314 0
0.8 0.321 0
0.8 0.328 0
0.8 0.335 0
0.8 0.342 0
0.8 0.349 0
0.8 0.356 0
0.8 0.363 0
0.8 0.37 0
0.8 0.377 0
0.8 0.384 0
0.8 0.391 0
0.8 0.398 0
0.8 0.405 0
0.8 0.412 0
0.8 0.419 0
0.8 0.426 0
0.8 0.433 0
0.8 0.44 0
0.8 0.447 0
0.8 0.454 0
0.8 0.461 0
0.8 0.468 0
0.8 0.475 0
0.8 0.482 0
0.8 0.489 0
0.8 0.496 0
0.8 0.503 0
0.8 0.51 0
0.8 0.517 0
0.8 0.524 0
0.8 0.531 0
0.8 0.538 0
0.8 0.545 0
0.8 0.552 0
0.8 0.559 0
0.8 0.566 0
0.8 0.573 0
0.8 0.58 0
0.8 0.587 0
0.8 0.594 0
0.8 0.601 0
0.8 0.608 0
0.8 0.615 0
0.8 0.622 0
0.8 0.629 0
0.8 0.636 0
0.8 0.643 0
0.8 0.65 0
0.8 0.657 0
0.8 0.664 0
0.8 0.671 0
0.8 0.678 0
0.8 0.685 0
0.8 0.692 0
0.8 0.699 0
0.8 0.706 0
0.8 0.713 0
0.8 0.72 0
0.8 0.727 0
0.8 0.734 0
0.8 0.741 0
0.8 0.748 0
0.8 0.755 0
0.8 0.762 0
0.8 0.769 0
0.8 0.776 0
0.8 0.783 0
0.8 0.79 0
0.8 0.797 0
0.8 0.804 0
0.8 0.811 0
0.8 0.818 0
0.8 0.825 0
0.8 0.832 0
0.8 0.839 0
0.8 0.846 0
0.8 0.853 0
0.8 0.86 0
0.8 0.867 0
0.8 0.874 0
0.8 0.881 0
0.8 0.888 0
0.8 0.895 0
0.8 0.902 0
0.8 0.909 0
0.8 0.916 0
0.8 0.923 0
0.8 0.93 0
0.8 0.937 0
0.8 0.944 0
0.8 0.951 0
0.8 0.958 0
0.8 0.965 0
0.8 0.972 0
0.8 0.979 0
0.8 0.986 0
0.8 0.993 0
0.8 1 0
0.82 0.305 0
0.82 0.31195 0
0.82 0.3189 0
0.82 0.32585 0
0.82 0.3328 0
0.82 0.33975 0
0.82 0.3467 0
0.82 0.35365 0
0.82 0.3606 0
0.82 0.36755 0
0.82 0.3745 0
0.82 0.38145 0
0.82 0.3884 0
0.82 0.39535 0
0.82 0.4023 0
0.82 0.40925 0
0.82 0.4162 0
0.82 0.42315 0
0.82 0.4301 0
0.82 0.43705 0
0.82 0.444 0
0.82 0.45095 0
0.82 0.4579 0
0.82 0.46485 0
0.82 0.4718 0
0.82 0.47875 0
0.82 0.4857 0
0.82 0.49265 0
0.82 0.4996 0
0.82 0.50655 0
0.82 0.5135 0
0.82 0.52045 0
0.82 0.5274 0
0.82 0.53435 0
0.82 0.5413 0
0.82 0.54825 0
0.82 0.5552 0
0.82 0.56215 0
0.82 0.5691 0
0.82 0.57605 0
0.82 0.583 0
0.82 0.58995 0
0.82 0.5969 0
0.82 0.60385 0
0.82 0.6108 0
0.82 0.61775 0
0.82 0.6247 0
0.82 0.63165 0
0.82 0.6386 0
0.82 0.64555 0
0.82 0.6525 0
0.82 0.65945 0
0.82 0.6664 0
0.82 0.67335 0
0.82 0.6803 0
0.82 0.68725 0
0.82 0.6942 0
0.82 0.70115 0
0.82 0.7081 0
0.82 0.71505 0
0.82 0.722 0
0.82 0.72895 0
0.82 0.7359 0
0.82 0.74285 0
0.82 0.7498 0
0.82 0.75675 0
0.82 0.7637 0
0.82 0.77065 0
0.82 0.7776 0
0.82 0.78455 0
0.82 0.7915 0
0.82 0.79845 0
0.82 0.8054 0
0.82 0.81235 0
0.82 0.8193 0
0.82 0.82625 0
0.82 0.8332 0
0.82 0.84015 0
0.82 0.8471 0
0.82 0.85405 0
0.82 0.861 0
0.82 0.86795 0
0.82 0.8749 0
0.82 0.88185 0
0.82 0.8888 0
0.82 0.89575 0
0.82 0.9027 0
0.82 0.90965 0
0.82 0.9166 0
0.82 0.92355 0
0.82 0.9305 0
0.82 0.93745 0
0.82 0.9444 0
0.82 0.95135 0
0.82 0.9583 0
0.82 0.96525 0
0.82 0.9722 0
0.82 0.97915 0
0.82 0.9861 0
0.82 0.99305 0
0.82 1 0
0.84 0.31 0
0.84 0.3169 0
0.84 0.3238 0
0.84 0.3307 0
0.84 0.3376 0
0.84 0.3445 0
0.84 0.3514 0
0.84 0.3583 0
0.84 0.3652 0
0.84 0.3721 0
0.84 0.379 0
0.84 0.3859 0
0.84 0.3928 0
0.84 0.3997 0
0.84 0.4066 0
0.84 0.4135 0
0.84 0.4204 0
0.84 0.4273 0
0.84 0.4342 0
0.84 0.4411 0
0.84 0.448 0
0.84 0.4549 0
0.84 0.4618 0
0.84 0.4687 0
0.84 0.4756 0
0.84 0.4825 0
0.84 0.4894 0
0.84 0.4963 0
0.84 0.5032 0
0.84 0.5101 0
0.84 0.517 0
0.84 0.5239 0
0.84 0.5308 0
0.84 0.5377 0
0.84 0.5446 0
0.84 0.5515 0
0.84 0.5584 0
0.84 0.5653 0
0.84 0.5722 0
0.84 0.5791 0
0.84 0.586 0
0.84 0.5929 0
0.84 0.5998 0
0.84 0.6067 0
0.84 0.6136 0
0.84 0.6205 0
0.84 0.6274 0
0.84 0.6343 0
0.84 0.6412 0
0.84 0.6481 0
0.84 0.655 0
0.84 0.6619 0
0.84 0.6688 0
0.84 0.6757 0
0.84 0.6826 0
0.84 0.6895 0
0.84 0.6964 0
0.84 0.7033 0
0.84 0.7102 0
0.84 0.7171 0
0.84 0.724 0
0.84 0.7309 0
0.84 0.7378 0
0.84 0.7447 0
0.84 0.7516 0
0.84 0.7585 0
0.84 0.7654 0
0.84 0.7723 0
0.84 0.7792 0
0.84 0.7861 0
0.84 0.793 0
0.84 0.7999 0
0.84 0.8068 0
0.84 0.8137 0
0.84 0.8206 0
0.84 0.8275 0
0.84 0.8344 0
0.84 0.8413 0
0.84 0.8482 0
0.84 0.8551 0
0.84 0.862 0
0.84 0.8689 0
0.84 0.8758 0
0.84 0.8827 0
0.84 0.8896 0
0.84 0.8965 0
0.84 0.9034 0
0.84 0.9103 0
0.84 0.9172 0
0.84 0.9241 0
0.84 0.931 0
0.84 0.9379 0
0.84 0.9448 0
0.84 0.9517 0
0.84 0.9586 0
0.84 0.9655 0
0.84 0.9724 0
0.84 0.9793 0
0.84 0.9862 0
0.84 0.9931 0
0.84 1 0
0.86 0.315 0
0.86 0.32185 0
0.86 0.3287 0
0.86 0.33555 0
0.86 0.3424 0
0.86 0.34925 0
0.86 0.3561 0
0.86 0.36295 0
0.86 0.3698 0
0.86 0.37665 0
0.86 0.3835 0
0.86 0.39035 0
0.86 0.3972 0
0.86 0.40405 0
0.86 0.4109 0
0.86 0.41775 0
0.86 0.4246 0
0.86 0.43145 0
0.86 0.4383 0
0.86 0.44515 0
0.86 0.452 0
0.86 0.45885 0
0.86 0.4657 0
0.86 0.47255 0
0.86 0.4794 0
0.86 0.48625 0
0.86 0.4931 0
0.86 0.49995 0
0.86 0.5068 0
0.86 0.51365 0
0.86 0.5205 0
0.86 0.52735 0
0.86 0.5342 0
0.86 0.54105 0
0.86 0.5479 0
0.86 0.55475 0
0.86 0.5616 0
0.86 0.56845 0
0.86 0.5753 0
0.86 0.58215 0
0.86 0.589 0
0.86 0.59585 0
0.86 0.6027 0
0.86 0.60955 0
0.86 0.6164 0
0.86 0.62325 0
0.86 0.6301 0
0.86 0.63695 0
0.86 0.6438 0
0.86 0.65065 0
0.86 0.6575 0
0.86 0.66435 0
0.86 0.6712 0
0.86 0.67805 0
0.86 0.6849 0
0.86 0.69175 0
0.86 0.6986 0
0.86 0.70545 0
0.86 0.7123 0
0.86 0.71915 0
0.86 0.726 0
0.86 0.73285 0
0.86 0.7397 0
0.86 0.74655 0
0.86 0.7534 0
0.86 0.76025 0
0.86 0.7671 0
0.86 0.77395 0
0.86 0.7808 0
0.86 0.78765 0
0.86 0.7945 0
0.86 0.80135 0
0.86 0.8082 0
0.86 0.81505 0
0.86 0.8219 0
0.86 0.82875 0
0.86 0.8356 0
0.86 0.84245 0
0.86 0.8493 0
0.86 0.85615 0
0.86 0.863 0
0.86 0.86985 0
0.86 0.8767 0
0.86 0.88355 0
0.86 0.8904 0
0.86 0.89725 0
0.86 0.9041 0
0.86 0.91095 0
0.86 0.9178 0
0.86 0.92465 0
0.86 0.9315 0
0.86 0.93835 0
0.86 0.9452 0
0.86 0.95205 0
0.86 0.9589 0
0.86 0.96575 0
0.86 0.9726 0
0.86 0.97945 0
0.86 0.9863 0
0.86 0.99315 0
0.86 1 0
0.88 0.32 0
0.88 0.3268 0
0.88 0.3336 0
0.88 0.3404 0
0.88 0.3472 0
0.88 0.354 0
0.88 0.3608 0
0.88 0.3676 0
0.88 0.3744 0
0.88 0.3812 0
0.88 0.388 0
0.88 0.3948 0
0.88 0.4016 0
0.88 0.4084 0
0.88 0.4152 0
0.88 0.422 0
0.88 0.4288 0
0.88 0.4356 0
0.88 0.4424 0
0.88 0.4492 0
0.88 0.456 0
0.88 0.4628 0
0.88 0.4696 0
0.88 0.4764 0
0.88 0.4832 0
0.88 0.49 0
0.88 0.4968 0
0.88 0.5036 0
0.88 0.5104 0
0.88 0.5172 0
0.88 0.524 0
0.88 0.5308 0
0.88 0.5376 0
0.88 0.5444 0
0.88 0.5512 0
0.88 0.558 0
0.88 0.5648 0
0.88 0.5716 0
0.88 0.5784 0
0.88 0.5852 0
0.88 0.592 0
0.88 0.5988 0
0.88 0.6056 0
0.88 0.6124 0
0.88 0.6192 0
0.88 0.626 0
0.88 0.6328 0
0.88 0.6396 0
0.88 0.6464 0
0.88 0.6532 0
0.88 0.66 0
0.88 0.6668 0
0.88 0.6736 0
0.88 0.6804 0
0.88 0.6872 0
0.88 0.694 0
0.88 0.7008 0
0.88 0.7076 0
0.88 0.7144 0
0.88 0.7212 0
0.88 0.728 0
0.88 0.7348 0
0.88 0.7416 0
0.88 0.7484 0
0.88 0.7552 0
0.88 0.762 0
0.88 0.7688 0
0.88 0.7756 0
0.88 0.7824 0
0.88 0.7892 0
0.88 0.796 0
0.88 0.8028 0
0.88 0.8096 0
0.88 0.8164 0
0.88 0.8232 0
0.88 0.83 0
0.88 0.8368 0
0.88 0.8436 0
0.88 0.8504 0
0.88 0.8572 0
0.88 0.864 0
0.88 0.8708 0
0.88 0.8776 0
0.88 0.8844 0
0.88 0.8912 0
0.88 0.898 0
0.88 0.9048 0
0.88 0.9116 0
0.88 0.9184 0
0.88 0.9252 0
0.88 0.932 0
0.88 0.9388 0
0.88 0.9456 0
0.88 0.9524 0
0.88 0.9592 0
0.88 0.966 0
0.88 0.9728 0
0.88 0.9796 0
0.88 0.9864 0
0.88 0.9932 0
0.88 1 0
0.9 0.325 0
0.9 0.33175 0
0.9 0.3385 0
0.9 0.34525 0
0.9 0.352 0
0.9 0.35875 0
0.9 0.3655 0
0.9 0.37225 0
0.9 0.379 0
0.9 0.38575 0
0.9 0.3925 0
0.9 0.39925 0
0.9 0.406 0
0.9 0.41275 0
0.9 0.4195 0
0.9 0.42625 0
0.9 0.433 0
0.9 0.43975 0
0.9 0.4465 0
0.9 0.45325 0
0.9 0.46 0
0.9 0.46675 0
0.9 0.4735 0
0.9 0.48025 0
0.9 0.487 0
0.9 0.49375 0
0.9 0.5005 0
0.9 0.50725 0
0.9 0.514 0
0.9 0.52075 0
0.9 0.5275 0
0.9 0.53425 0
0.9 0.541 0
0.9 0.54775 0
0.9 0.5545 0
0.9 0.56125 0
0.9 0.568 0
0.9 0.57475 0
0.9 0.5815 0
0.9 0.58825 0
0.9 0.595 0
0.9 0.60175 0
0.9 0.6085 0
0.9 0.61525 0
0.9 0.622 0
0.9 0.62875 0
0.9 0.6355 0
0.9 0.64225 0
0.9 0.649 0
0.9 0.65575 0
0.9 0.6625 0
0.9 0.66925 0
0.9 0.676 0
0.9 0.68275 0
0.9 0.6895 0
0.9 0.69625 0
0.9 0.703 0
0.9 0.70975 0
0.9 0.7165 0
0.9 0.72325 0
0.9 0.73 0
0.9 0.73675 0
0.9 0.7435 0
0.9 0.75025 0
0.9 0.757 0
0.9 0.76375 0
0.9 0.7705 0
0.9 0.77725 0
0.9 0.784 0
0.9 0.79075 0
0.9 0.7975 0
0.9 0.80425 0
0.9 0.811 0
0.9 0.81775 0
0.9 0.8245 0
0.9 0.83125 0
0.9 0.838 0
0.9 0.84475 0
0.9 0.8515 0
0.9 0.85825 0
0.9 0.865 0
0.9 0.87175 0
0.9 0.8785 0
0.9 0.88525 0
0.9 0.892 0
0.9 0.89875 0
0.9 0.9055 0
0.9 0.91225 0
0.9 0.919 0
0.9 0.92575 0
0.9 0.9325 0
0.9 0.93925 0
0.9 0.946 0
0.9 0.95275 0
0.9 0.9595 0
0.9 0.96625 0
0.9 0.973 0
0.9 0.97975 0
0.9 0.9865 0
0.9 0.99325 0
0.9 1 0
0.92 0.33 0
0.92 0.3367 0
0.92 0.3434 0
0.92 0.3501 0
0.92 0.3568 0
0.92 0.3635 0
0.92 0.3702 0
0.92 0.3769 0
0.92 0.3836 0
0.92 0.3903 0
0.92 0.397 0
0.92 0.4037 0
0.92 0.4104 0
0.92 0.4171 0
0.92 0.4238 0
0.92 0.4305 0
0.92 0.4372 0
0.92 0.4439 0
0.92 0.4506 0
0.92 0.4573 0
0.92 0.464 0
0.92 0.4707 0
0.92 0.4774 0
0.92 0.4841 0
0.92 0.4908 0
0.92 0.4975 0
0.92 0.5042 0
0.92 0.5109 0
0.92 0.5176 0
0.92 0.5243 0
0.92 0.531 0
0.92 0.5377 0
0.92 0.5444 0
0.92 0.5511 0
0.92 0.5578 0
0.92 0.5645 0
0.92 0.5712 0
0.92 0.5779 0
0.92 0.5846 0
0.92 0.5913 0
0.92 0.598 0
0.92 0.6047 0
0.92 0.6114 0
0.92 0.6181 0
0.92 0.6248 0
0.92 0.6315 0
0.92 0.6382 0
0.92 0.6449 0
0.92 0.6516 0
0.92 0.6583 0
0.92 0.665 0
0.92 0.6717 0
0.92 0.6784 0
0.92 0.6851 0
0.92 0.6918 0
0.92 0.6985 0
0.92 0.7052 0
0.92 0.7119 0
0.92 0.7186 0
0.92 0.7253 0
0.92 0.732 0
0.92 0.7387 0
0.92 0.7454 0
0.92 0.7521 0
0.92 0.7588 0
0.92 0.7655 0
0.92 0.7722 0
0.92 0.7789 0
0.92 0.7856 0
0.92 0.7923 0
0.92 0.799 0
0.92 0.8057 0
0.92 0.8124 0
0.92 0.8191 0
0.92 0.8258 0
0.92 0.8325 0
0.92 0.8392 0
0.92 0.8459 0
0.92 0.8526 0
0.92 0.8593 0
0.92 0.866 0
0.92 0.8727 0
0.92 0.8794 0
0.92 0.8861 0
0.92 0.8928 0
0.92 0.8995 0
0.92 0.9062 0
0.92 0.9129 0
0.92 0.9196 0
0.92 0.9263 0
0.92 0.933 0
0.92 0.9397 0
0.92 0.9464 0
0.92 0.9531 0
0.92 0.9598 0
0.92 0.9665 0
0.92 0.9732 0
0.92 0.9799 0
0.92 0.9866 0
0.92 0.9933 0
0.92 1 0
0.94 0.335 0
0.94 0.34165 0
0.94 0.3483 0
0.94 0.35495 0
0.94 0.3616 0
0.94 0.36825 0
0.94 0.3749 0
0.94 0.38155 0
0.94 0.3882 0
0.94 0.39485 0
0.94 0.4015 0
0.94 0.40815 0
0.94 0.4148 0
0.94 0.42145 0
0.94 0.4281 0
0.94 0.43475 0
0.94 0.4414 0
0.94 0.44805 0
0.94 0.4547 0
0.94 0.46135 0
0.94 0.468 0
0.94 0.47465 0
0.94 0.4813 0
0.94 0.48795 0
0.94 0.4946 0
0.94 0.50125 0
0.94 0.5079 0
0.94 0.51455 0
0.94 0.5212 0
0.94 0.52785 0
0.94 0.5345 0
0.94 0.54115 0
0.94 0.5478 0
0.94 0.55445 0
0.94 0.5611 0
0.94 0.56775 0
0.94 0.5744 0
0.94 0.58105 0
0.94 0.5877 0
0.94 0.59435 0
0.94 0.601 0
0.94 0.60765 0
0.94 0.6143 0
0.94 0.62095 0
0.94 0.6276 0
0.94 0.63425 0
0.94 0.6409 0
0.94 0.64755 0
0.94 0.6542 0
0.94 0.66085 0
0.94 0.6675 0
0.94 0.67415 0
0.94 0.6808 0
0.94 0.68745 0
0.94 0.6941 0
0.94 0.70075 0
0.94 0.7074 0
0.94 0.71405 0
0.94 0.7207 0
0.94 0.72735 0
0.94 0.734 0
0.94 0.74065 0
0.94 0.7473 0
0.94 0.75395 0
0.94 0.7606 0
0.94 0.76725 0
0.94 0.7739 0
0.94 0.78055 0
0.94 0.7872 0
0.94 0.79385 0
0.94 0.8005 0
0.94 0.80715 0
0.94 0.8138 0
0.94 0.82045 0
0.94 0.8271 0
0.94 0.83375 0
0.94 0.8404 0
0.94 0.84705 0
0.94 0.8537 0
0.94 0.86035 0
0.94 0.867 0
0.94 0.87365 0
0.94 0.8803 0
0.94 0.88695 0
0.94 0.8936 0
0.94 0.90025 0
0.94 0.9069 0
0.94 0.91355 0
0.94 0.9202 0
0.94 0.92685 0
0.94 0.9335 0
0.94 0.94015 0
0.94 0.9468 0
0.94 0.95345 0
0.94 0.9601 0
0.94 0.96675 0
0.94 0.9734 0
0.94 0.98005 0
0.94 0.9867 0
0.94 0.99335 0
0.94 1 0
0.96 0.34 0
0.96 0.3466 0
0.96 0.3532 0
0.96 0.3598 0
0.96 0.3664 0
0.96 0.373 0
0.96 0.3796 0
0.96 0.3862 0
0.96 0.3928 0
0.96 0.3994 0
0.96 0.406 0
0.96 0.4126 0
0.96 0.4192 0
0.96 0.4258 0
0.96 0.4324 0
0.96 0.439 0
0.96 0.4456 0
0.96 0.4522 0
0.96 0.4588 0
0.96 0.4654 0
0.96 0.472 0
0.96 0.4786 0
0.96 0.4852 0
0.96 0.4918 0
0.96 0.4984 0
0.96 0.505 0
0.96 0.5116 0
0.96 0.5182 0
0.96 0.5248 0
0.96 0.5314 0
0.96 0.538 0
0.96 0.5446 0
0.96 0.5512 0
0.96 0.5578 0
0.96 0.5644 0
0.96 0.571 0
0.96 0.5776 0
0.96 0.5842 0
0.96 0.5908 0
0.96 0.5974 0
0.96 0.604 0
0.96 0.6106 0
0.96 0.6172 0
0.96 0.6238 0
0.96 0.6304 0
0.96 0.637 0
0.96 0.6436 0
0.96 0.6502 0
0.96 0.6568 0
0.96 0.6634 0
0.96 0.67 0
0.96 0.6766 0
0.96 0.6832 0
0.96 0.6898 0
0.96 0.6964 0
0.96 0.703 0
0.96 0.7096 0
0.96 0.7162 0
0.96 0.7228 0
0.96 0.7294 0
0.96 0.736 0
0.96 0.7426 0
0.96 0.7492 0
0.96 0.7558 0
0.96 0.7624 0
0.96 0.769 0
0.96 0.7756 0
0.96 0.7822 0
0.96 0.7888 0
0.96 0.7954 0
0.96 0.802 0
0.96 0.8086 0
0.96 0.8152 0
0.96 0.8218 0
0.96 0.8284 0
0.96 0.835 0
0.96 0.8416 0
0.96 0.8482 0
0.96 0.8548 0
0.96 0.8614 0
0.96 0.868 0
0.96 0.8746 0
0.96 0.8812 0
0.96 0.8878 0
0.96 0.8944 0
0.96 0.901 0
0.96 0.9076 0
0.96 0.9142 0
0.96 0.9208 0
0.96 0.9274 0
0.96 0.934 0
0.96 0.9406 0
0.96 0.9472 0
0.96 0.9538 0
0.96 0.9604 0
0.96 0.967 0
0.96 0.9736 0
0.96 0.9802 0
0.96 0.9868 0
0.96 0.9934 0
0.96 1 0
0.98 0.345 0
0.98 0.35155 0
0.98 0.3581 0
0.98 0.36465 0
0.98 0.3712 0
0.98 0.37775 0
0.98 0.3843 0
0.98 0.39085 0
0.98 0.3974 0
0.98 0.40395 0
0.98 0.4105 0
0.98 0.41705 0
0.98 0.4236 0
0.98 0.43015 0
0.98 0.4367 0
0.98 0.44325 0
0.98 0.4498 0
0.98 0.45635 0
0.98 0.4629 0
0.98 0.46945 0
0.98 0.476 0
0.98 0.48255 0
0.98 0.4891 0
0.98 0.49565 0
0.98 0.5022 0
0.98 0.50875 0
0.98 0.5153 0
0.98 0.52185 0
0.98 0.5284 0
0.98 0.53495 0
0.98 0.5415 0
0.98 0.54805 0
0.98 0.5546 0
0.98 0.56115 0
0.98 0.5677 0
0.98 0.57425 0
0.98 0.5808 0
0.98 0.58735 0
0.98 0.5939 0
0.98 0.60045 0
0.98 0.607 0
0.98 0.61355 0
0.98 0.6201 0
0.98 0.62665 0
0.98 0.6332 0
0.98 0.63975 0
0.98 0.6463 0
0.98 0.65285 0
0.98 0.6594 0
0.98 0.66595 0
0.98 0.6725 0
0.98 0.67905 0
0.98 0.6856 0
0.98 0.69215 0
0.98 0.6987 0
0.98 0.70525 0
0.98 0.7118 0
0.98 0.71835 0
0.98 0.7249 0
0.98 0.73145 0
0.98 0.738 0
0.98 0.74455 0
0.98 0.7511 0
0.98 0.75765 0
0.98 0.7642 0
0.98 0.77075 0
0.98 0.7773 0
0.98 0.78385 0
0.98 0.7904 0
0.98 0.79695 0
0.98 0.8035 0
0.98 0.81005 0
0.98 0.8166 0
0.98 0.82315 0
0.98 0.8297 0
0.98 0.83625 0
0.98 0.8428 0
0.98 0.84935 0
0.98 0.8559 0
0.98 0.86245 0
0.98 0.869 0
0.98 0.87555 0
0.98 0.8821 0
0.98 0.88865 0
0.98 0.8952 0
0.98 0.90175 0
0.98 0.9083 0
0.98 0.91485 0
0.98 0.9214 0
0.98 0.92795 0
0.98 0.9345 0
0.98 0.94105 0
0.98 0.9476 0
0.98 0.95415 0
0.98 0.9607 0
0.98 0.96725 0
0.98 0.9738 0
0.98 0.98035 0
0.98 0.9869 0
0.98 0.99345 0
0.98 1 0
1 0.35 0
1 0.3565 0
1 0.363 0
1 0.3695 0
1 0.376 0
1 0.3825 0
1 0.389 0
1 0.3955 0
1 0.402 0
1 0.4085 0
1 0.415 0
1 0.4215 0
1 0.428 0
1 0.4345 0
1 0.441 0
1 0.4475 0
1 0.454 0
1 0.4605 0
1 0.467 0
1 0.4735 0
1 0.48 0
1 0.4865 0
1 0.493 0
1 0.4995 0
1 0.506 0
1 0.5125 0
1 0.519 0
1 0.5255 0
1 0.532 0
1 0.5385 0
1 0.545 0
1 0.5515 0
1 0.558 0
1 0.5645 0
1 0.571 0
1 0.5775 0
1 0.584 0
1 0.5905 0
1 0.597 0
1 0.6035 0
1 0.61 0
1 0.6165 0
1 0.623 0
1 0.6295 0
1 0.636 0
1 0.6425 0
1 0.649 0
1 0.6555 0
1 0.662 0
1 0.6685 0
1 0.675 0
1 0.6815 0
1 0.688 0
1 0.6945 0
1 0.701 0
1 0.7075 0
1 0.714 0
1 0.7205 0
1 0.727 0
1 0.7335 0
1 0.74 0
1 0.7465 0
1 0.753 0
1 0.7595 0
1 0.766 0
1 0.7725 0
1 0.779 0
1 0.7855 0
1 0.792 0
1 0.7985 0
1 0.805 0
1 0.8115 0
1 0.818 0
1 0.8245 0
1 0.831 0
1 0.8375 0
1 0.844 0
1 0.8505 0
1 0.857 0
1 0.8635 0
1 0.87 0
1 0.8765 0
1 0.883 0
1 0.8895 0
1 0.896 0
1 0.9025 0
1 0.909 0
1 0.9155 0
1 0.922 0
1 0.9285 0
1 0.935 0
1 0.9415 0
1 0.948 0
1 0.9545 0
1 0.961 0
1 0.9675 0
1 0.974 0
1 0.9805 0
1 0.987 0
1 0.9935 0
1 1 0
1.02 0.355 0
1.02 0.36145 0
1.02 0.3679 0
1.02 0.37435 0
1.02 0.3808 0
1.02 0.38725 0
1.02 0.3937 0
1.02 0.40015 0
1.02 0.4066 0
1.02 0.41305 0
1.02 0.4195 0
1.02 0.42595 0
1.02 0.4324 0
1.02 0.43885 0
1.02 0.4453 0
1.02 0.45175 0
1.02 0.4582 0
1.02 0.46465 0
1.02 0.4711 0
1.02 0.47755 0
1.02 0.484 0
1.02 0.49045 0
1.02 0.4969 0
1.02 0.50335 0
1.02 0.5098 0
1.02 0.51625 0
1.02 0.5227 0
1.02 0.52915 0
1.02 0.5356 0
1.02 0.54205 0
1.02 0.5485 0
1.02 0.55495 0
1.02 0.5614 0
1.02 0.56785 0
1.02 0.5743 0
1.02 0.58075 0
1.02 0.5872 0
1.02 0.59365 0
1.02 0.6001 0
1.02 0.60655 0
1.02 0.613 0
1.02 0.61945 0
1.02 0.6259 0
1.02 0.63235 0
1.02 0.6388 0
1.02 0.64525 0
1.02 0.6517 0
1.02 0.65815 0
1.02 0.6646 0
1.02 0.67105 0
1.02 0.6775 0
1.02 0.68395 0
1.02 0.6904 0
1.02 0.69685 0
1.02 0.7033 0
1.02 0.70975 0
1.02 0.7162 0
1.02 0.72265 0
1.02 0.7291 0
1.02 0.73555 0
1.02 0.742 0
1.02 0.74845 0
1.02 0.7549 0
1.02 0.76135 0
1.02 0.7678 0
1.02 0.77425 0
1.02 0.7807 0
1.02 0.78715 0
1.02 0.7936 0
1.02 0.80005 0
1.02 0.8065 0
1.02 0.81295 0
1.02 0.8194 0
1.02 0.82585 0
1.02 0.8323 0
1.02 0.83875 0
1.02 0.8452 0
1.02 0.85165 0
1.02 0.8581 0
1.02 0.86455 0
1.02 0.871 0
1.02 0.87745 0
1.02 0.8839 0
1.02 0.89035 0
1.02 0.8968 0
1.02 0.90325 0
1.02 0.9097 0
1.02 0.91615 0
1.02 0.9226 0
1.02 0.92905 0
1.02 0.9355 0
1.02 0.94195 0
1.02 0.9484 0
1.02 0.95485 0
1.02 0.9613 0
1.02 0.96775 0
1.02 0.9742 0
1.02 0.98065 0
1.02 0.9871 0
1.02 0.99355 0
1.02 1 0
1.04 0.36 0
1.04 0.3664 0
1.04 0.3728 0
1.04 0.3792 0
1.04 0.3856 0
1.04 0.392 0
1.04 0.3984 0
1.04 0.4048 0
1.04 0.4112 0
1.04 0.4176 0
1.04 0.424 0
1.04 0.4304 0
1.04 0.4368 0
1.04 0.4432 0
1.04 0.4496 0
1.04 0.456 0
1.04 0.4624 0
1.04 0.4688 0
1.04 0.4752 0
1.04 0.4816 0
1.04 0.488 0
1.04 0.4944 0
1.04 0.5008 0
1.04 0.5072 0
1.04 0.5136 0
1.04 0.52 0
1.04 0.5264 0
1.04 0.5328 0
1.04 0.5392 0
1.04 0.5456 0
1.04 0.552 0
1.04 0.5584 0
1.04 0.5648 0
1.04 0.5712 0
1.04 0.5776 0
1.04 0.584 0
1.04 0.5904 0
1.04 0.5968 0
1.04 0.6032 0
1.04 0.6096 0
1.04 0.616 0
1.04 0.6224 0
1.04 0.6288 0
1.04 0.6352 0
1.04 0.6416 0
1.04 0.648 0
1.04 0.6544 0
1.04 0.6608 0
1.04 0.6672 0
1.04 0.6736 0
1.04 0.68 0
1.04 0.6864 0
1.04 0.6928 0
1.04 0.6992 0
1.04 0.7056 0
1.04 0.712 0
1.04 0.7184 0
1.04 0.7248 0
1.04 0.7312 0
1.04 0.7376 0
1.04 0.744 0
1.04 0.7504 0
1.04 0.7568 0
1.04 0.7632 0
1.04 0.7696 0
1.04 0.776 0
1.04 0.7824 0
1.04 0.7888 0
1.04 0.7952 0
1.04 0.8016 0
1.04 0.808 0
1.04 0.8144 0
1.04 0.8208 0
1.04 0.8272 0
1.04 0.8336 0
1.04 0.84 0
1.04 0.8464 0
1.04 0.8528 0
1.04 0.8592 0
1.04 0.8656 0
1.04 0.872 0
1.04 0.8784 0
1.04 0.8848 0
1.04 0.8912 0
1.04 0.8976 0
1.04 0.904 0
1.04 0.9104 0
1.04 0.9168 0
1.04 0.9232 0
1.04 0.9296 0
1.04 0.936 0
1.04 0.9424 0
1.04 0.9488 0
1.04 0.9552 0
1.04 0.9616 0
1.04 0.968 0
1.04 0.9744 0
1.04 0.9808 0
1.04 0.9872 0
1.04 0.9936 0
1.04 1 0
1.06 0.365 0
1.06 0.37135 0
1.06 0.3777 0
1.06 0.38405 0
1.06 0.3904 0
1.06 0.39675 0
1.06 0.4031 0
1.06 0.40945 0
1.06 0.4158 0
1.06 0.42215 0
1.06 0.4285 0
1.06 0.43485 0
1.06 0.4412 0
1.06 0.44755 0
1.06 0.4539 0
1.06 0.46025 0
1.06 0.4666 0
1.06 0.47295 0
1.06 0.4793 0
1.06 0.48565 0
1.06 0.492 0
1.06 0.49835 0
1.06 0.5047 0
1.06 0.51105 0
1.06 0.5174 0
1.06 0.52375 0
1.06 0.5301 0
1.06 0.53645 0
1.06 0.5428 0
1.06 0.54915 0
1.06 0.5555 0
1.06 0.56185 0
1.06 0.5682 0
1.06 0.57455 0
1.06 0.5809 0
1.06 0.58725 0
1.06 0.5936 0
1.06 0.59995 0
1.06 0.6063 0
1.06 0.61265 0
1.06 0.619 0
1.06 0.62535 0
1.06 0.6317 0
1.06 0.63805 0
1.06 0.6444 0
1.06 0.65075 0
1.06 0.6571 0
1.06 0.66345 0
1.06 0.6698 0
1.06 0.67615 0
1.06 0.6825 0
1.06 0.68885 0
1.06 0.6952 0
1.06 0.70155 0
1.06 0.7079 0
1.06 0.71425 0
1.06 0.7206 0
1.06 0.72695 0
1.06 0.7333 0
1.06 0.73965 0
1.06 0.746 0
1.06 0.75235 0
1.06 0.7587 0
1.06 0.76505 0
1.06 0.7714 0
1.06 0.77775 0
1.06 0.7841 0
1.06 0.79045 0
1.06 0.7968 0
1.06 0.80315 0
1.06 0.8095 0
1.06 0.81585 0
1.06 0.8222 0
1.06 0.82855 0
1.06 0.8349 0
1.06 0.84125 0
1.06 0.8476 0
1.06 0.85395 0
1.06 0.8603 0
1.06 0.86665 0
1.06 0.873 0
1.06 0.87935 0
1.06 0.8857 0
1.06 0.89205 0
1.06 0.8984 0
1.06 0.90475 0
1.06 0.9111 0
1.06 0.91745 0
1.06 0.9238 0
1.06 0.93015 0
1.06 0.9365 0
1.06 0.94285 0
1.06 0.9492 0
1.06 0.95555 0
1.06 0.9619 0
1.06 0.96825 0
1.06 0.9746 0
1.06 0.98095 0
1.06 0.9873 0
1.06 0.99365 0
1.06 1 0
1.08 0.37 0
1.08 0.3763 0
1.08 0.3826 0
1.08 0.3889 0
1.08 0.3952 0
1.08 0.4015 0
1.08 0.4078 0
1.08 0.4141 0
1.08 0.4204 0
1.08 0.4267 0
1.08 0.433 0
1.08 0.4393 0
1.08 0.4456 0
1.08 0.4519 0
1.08 0.4582 0
1.08 0.4645 0
1.08 0.4708 0
1.08 0.4771 0
1.08 0.4834 0
1.08 0.4897 0
1.08 0.496 0
1.08 0.5023 0
1.08 0.5086 0
1.08 0.5149 0
1.08 0.5212 0
1.08 0.5275 0
1.08 0.5338 0
1.08 0.5401 0
1.08 0.5464 0
1.08 0.5527 0
1.08 0.559 0
1.08 0.5653 0
1.08 0.5716 0
1.08 0.5779 0
1.08 0.5842 0
1.08 0.5905 0
1.08 0.5968 0
1.08 0.6031 0
1.08 0.6094 0
1.08 0.6157 0
1.08 0.622 0
1.08 0.6283 0
1.08 0.6346 0
1.08 0.6409 0
1.08 0.6472 0
1.08 0.6535 0
1.08 0.6598 0
1.08 0.6661 0
1.08 0.6724 0
1.08 0.6787 0
1.08 0.685 0
1.08 0.6913 0
1.08 0.6976 0
1.08 0.7039 0
1.08 0.7102 0
1.08 0.7165 0
1.08 0.7228 0
1.08 0.7291 0
1.08 0.7354 0
1.08 0.7417 0
1.08 0.748 0
1.08 0.7543 0
1.08 0.7606 0
1.08 0.7669 0
1.08 0.7732 0
1.08 0.7795 0
1.08 0.7858 0
1.08 0.7921 0
1.08 0.7984 0
1.08 0.8047 0
1.08 0.811 0
1.08 0.8173 0
1.08 0.8236 0
1.08 0.8299 0
1.08 0.8362 0
1.08 0.8425 0
1.08 0.8488 0
1.08 0.8551 0
1.08 0.8614 0
1.08 0.8677 0
1.08 0.874 0
1.08 0.8803 0
1.08 0.8866 0
1.08 0.8929 0
1.08 0.8992 0
1.08 0.9055 0
1.08 0.9118 0
1.08 0.9181 0
1.08 0.9244 0
1.08 0.9307 0
1.08 0.937 0
1.08 0.9433 0
1.08 0.9496 0
1.08 0.9559 0
1.08 0.9622 0
1.08 0.9685 0
1.08 0.9748 0
1.08 0.9811 0
1.08 0.9874 0
1.08 0.9937 0
1.08 1 0
1.1 0.375 0
1.1 0.38125 0
1.1 0.3875 0
1.1 0.39375 0
1.1 0.4 0
1.1 0.40625 0
1.1 0.4125 0
1.1 0.41875 0
1.1 0.425 0
1.1 0.43125 0
1.1 0.4375 0
1.1 0.44375 0
1.1 0.45 0
1.1 0.45625 0
1.1 0.4625 0
1.1 0.46875 0
1.1 0.475 0
1.1 0.48125 0
1.1 0.4875 0
1.1 0.49375 0
1.1 0.5 0
1.1 0.50625 0
1.1 0.5125 0
1.1 0.51875 0
1.1 0.525 0
1.1 0.53125 0
1.1 0.5375 0
1.1 0.54375 0
1.1 0.55 0
1.1 0.55625 0
1.1 0.5625 0
1.1 0.56875 0
1.1 0.575 0
1.1 0.58125 0
1.1 0.5875 0
1.1 0.59375 0
1.1 0.6 0
1.1 0.60625 0
1.1 0.6125 0
1.1 0.61875 0
1.1 0.625 0
1.1 0.63125 0
1.1 0.6375 0
1.1 0.64375 0
1.1 0.65 0
1.1 0.65625 0
1.1 0.6625 0
1.1 0.66875 0
1.1 0.675 0
1.1 0.68125 0
1.1 0.6875 0
1.1 0.69375 0
1.1 0.7 0
1.1 0.70625 0
1.1 0.7125 0
1.1 0.71875 0
1.1 0.725 0
1.1 0.73125 0
1.1 0.7375 0
1.1 0.74375 0
1.1 0.75 0
1.1 0.75625 0
1.1 0.7625 0
1.1 0.76875 0
1.1 0.775 0
1.1 0.78125 0
1.1 0.7875 0
1.1 0.79375 0
1.1 0.8 0
1.1 0.80625 0
1.1 0.8125 0
1.1 0.81875 0
1.1 0.825 0
1.1 0.83125 0
1.1 0.8375 0
1.1 0.84375 0
1.1 0.85 0
1.1 0.85625 0
1.1 0.8625 0
1.1 0.86875 0
1.1 0.875 0
1.1 0.88125 0
1.1 0.8875 0
1.1 0.89375 0
1.1 0.9 0
1.1 0.90625 0
1.1 0.9125 0
1.1 0.91875 0
1.1 0.925 0
1.1 0.93125 0
1.1 0.9375 0
1.1 0.94375 0
1.1 0.95 0
1.1 0.95625 0
1.1 0.9625 0
1.1 0.96875 0
1.1 0.975 0
1.1 0.98125 0
1.1 0.9875 0
1.1 0.99375 0
1.1 1 0
1.12 0.38 0
1.12 0.3862 0
1.12 0.3924 0
1.12 0.3986 0
1.12 0.4048 0
1.12 0.411 0
1.12 0.4172 0
1.12 0.4234 0
1.12 0.4296 0
1.12 0.4358 0
1.12 0.442 0
1.12 0.4482 0
1.12 0.4544 0
1.12 0.4606 0
1.12 0.4668 0
1.12 0.473 0
1.12 0.4792 0
1.12 0.4854 0
1.12 0.4916 0
1.12 0.4978 0
1.12 0.504 0
1.12 0.5102 0
1.12 0.5164 0
1.12 0.5226 0
1.12 0.5288 0
1.12 0.535 0
1.12 0.5412 0
1.12 0.5474 0
1.12 0.5536 0
1.12 0.5598 0
1.12 0.566 0
1.12 0.5722 0
1.12 0.5784 0
1.12 0.5846 0
1.12 0.5908 0
1.12 0.597 0
1.12 0.6032 0
1.12 0.6094 0
1.12 0.6156 0
1.12 0.6218 0
1.12 0.628 0
1.12 0.6342 0
1.12 0.6404 0
1.12 0.6466 0
1.12 0.6528 0
1.12 0.659 0
1.12 0.6652 0
1.12 0.6714 0
1.12 0.6776 0
1.12 0.6838 0
1.12 0.69 0
1.12 0.6962 0
1.12 0.7024 0
1.12 0.7086 0
1.12 0.7148 0
1.12 0.721 0
1.12 0.7272 0
1.12 0.7334 0
1.12 0.7396 0
1.12 0.7458 0
1.12 0.752 0
1.12 0.7582 0
1.12 0.7644 0
1.12 0.7706 0
1.12 0.7768 0
1.12 0.783 0
1.12 0.7892 0
1.12 0.7954 0
1.12 0.8016 0
1.12 0.8078 0
1.12 0.814 0
1.12 0.8202 0
1.12 0.8264 0
1.12 0.8326 0
1.12 0.8388 0
1.12 0.845 0
1.12 0.8512 0
1.12 0.8574 0
1.12 0.8636 0
1.12 0.8698 0
1.12 0.876 0
1.12 0.8822 0
1.12 0.8884 0
1.12 0.8946 0
1.12 0.9008 0
1.12 0.907 0
1.12 0.9132 0
1.12 0.9194 0
1.12 0.9256 0
1.12 0.9318 0
1.12 0.938 0
1.12 0.9442 0
1.12 0.9504 0
1.12 0.9566 0
1.12 0.9628 0
1.12 0.969 0
1.12 0.9752 0
1.12 0.9814 0
1.12 0.9876 0
1.12 0.9938 0
1.12 1 0
1.14 0.385 0
1.14 0.39115 0
1.14 0.3973 0
1.14 0.40345 0
1.14 0.4096 0
1.14 0.41575 0
1.14 0.4219 0
1.14 0.42805 0
1.14 0.4342 0
1.14 0.44035 0
1.14 0.4465 0
1.14 0.45265 0
1.14 0.4588 0
1.14 0.46495 0
1.14 0.4711 0
1.14 0.47725 0
1.14 0.4834 0
1.14 0.48955 0
1.14 0.4957 0
1.14 0.50185 0
1.14 0.508 0
1.14 0.51415 0
1.14 0.5203 0
1.14 0.52645 0
1.14 0.5326 0
1.14 0.53875 0
1.14 0.5449 0
1.14 0.55105 0
1.14 0.5572 0
1.14 0.56335 0
1.14 0.5695 0
1.14 0.57565 0
1.14 0.5818 0
1.14 0.58795 0
1.14 0.5941 0
1.14 0.60025 0
1.14 0.6064 0
1.14 0.61255 0
1.14 0.6187 0
1.14 0.62485 0
1.14 0.631 0
1.14 0.63715 0
1.14 0.6433 0
1.14 0.64945 0
1.14 0.6556 0
1.14 0.66175 0
1.14 0.6679 0
1.14 0.67405 0
1.14 0.6802 0
1.14 0.68635 0
1.14 0.6925 0
1.14 0.69865 0
1.14 0.7048 0
1.14 0.71095 0
1.14 0.7171 0
1.14 0.72325 0
1.14 0.7294 0
1.14 0.73555 0
1.14 0.7417 0
1.14 0.74785 0
1.14 0.754 0
1.14 0.76015 0
1.14 0.7663 0
1.14 0.77245 0
1.14 0.7786 0
1.14 0.78475 0
1.14 0.7909 0
1.14 0.79705 0
1.14 0.8032 0
1.14 0.80935 0
1.14 0.8155 0
1.14 0.82165 0
1.14 0.8278 0
1.14 0.83395 0
1.14 0.8401 0
1.14 0.84625 0
1.14 0.8524 0
1.14 0.85855 0
1.14 0.8647 0
1.14 0.87085 0
1.14 0.877 0
1.14 0.88315 0
1.14 0.8893 0
1.14 0.89545 0
1.14 0.9016 0
1.14 0.90775 0
1.14 0.9139 0
1.14 0.92005 0
1.14 0.9262 0
1.14 0.93235 0
1.14 0.9385 0
1.14 0.94465 0
1.14 0.9508 0
1.14 0.95695 0
1.14 0.9631 0
1.14 0.96925 0
1.14 0.9754 0
1.14 0.98155 0
1.14 0.9877 0
1.14 0.99385 0
1.14 1 0
1.16 0.39 0
1.16 0.3961 0
1.16 0.4022 0
1.16 0.4083 0
1.16 0.4144 0
1.16 0.4205 0
1.16 0.4266 0
1.16 0.4327 0
1.16 0.4388 0
1.16 0.4449 0
1.16 0.451 0
1.16 0.4571 0
1.16 0.4632 0
1.16 0.4693 0
1.16 0.4754 0
1.16 0.4815 0
1.16 0.4876 0
1.16 0.4937 0
1.16 0.4998 0
1.16 0.5059 0
1.16 0.512 0
1.16 0.5181 0
1.16 0.5242 0
1.16 0.5303 0
1.16 0.5364 0
1.16 0.5425 0
1.16 0.5486 0
1.16 0.5547 0
1.16 0.5608 0
1.16 0.5669 0
1.16 0.573 0
1.16 0.5791 0
1.16 0.5852 0
1.16 0.5913 0
1.16 0.5974 0
1.16 0.6035 0
1.16 0.6096 0
1.16 0.6157 0
1.16 0.6218 0
1.16 0.6279 0
1.16 0.634 0
1.16 0.6401 0
1.16 0.6462 0
1.16 0.6523 0
1.16 0.6584 0
1.16 0.6645 0
1.16 0.6706 0
1.16 0.6767 0
1.16 0.6828 0
1.16 0.6889 0
1.16 0.695 0
1.16 0.7011 0
1.16 0.7072 0
1.16 0.7133 0
1.16 0.7194 0
1.16 0.7255 0
1.16 0.7316 0
1.16 0.7377 0
1.16 0.7438 0
1.16 0.7499 0
1.16 0.756 0
1.16 0.7621 0
1.16 0.7682 0
1.16 0.7743 0
1.16 0.7804 0
1.16 0.7865 0
1.16 0.7926 0
1.16 0.7987 0
1.16 0.8048 0
1.16 0.8109 0
1.16 0.817 0
1.16 0.8231 0
1.16 0.8292 0
1.16 0.8353 0
1.16 0.8414 0
1.16 0.8475 0
1.16 0.8536 0
1.16 0.8597 0
1.16 0.8658 0
1.16 0.8719 0
1.16 0.878 0
1.16 0.8841 0
1.16 0.8902 0
1.16 0.8963 0
1.16 0.9024 0
1.16 0.9085 0
1.16 0.9146 0
1.16 0.9207 0
1.16 0.9268 0
1.16 0.9329 0
1.16 0.939 0
1.16 0.9451 0
1.16 0.9512 0
1.16 0.9573 0
1.16 0.9634 0
1.16 0.9695 0
1.16 0.9756 0
1.16 0.9817 0
1.16 0.9878 0
1.16 0.9939 0
1.16 1 0
1.18 0.395 0
1.18 0.40105 0
1.18 0.4071 0
1.18 0.41315 0
1.18 0.4192 0
1.18 0.42525 0
1.18 0.4313 0
1.18 0.43735 0
1.18 0.4434 0
1.18 0.44945 0
1.18 0.4555 0
1.18 0.46155 0
1.18 0.4676 0
1.18 0.47365 0
1.18 0.4797 0
1.18 0.48575 0
1.18 0.4918 0
1.18 0.49785 0
1.18 0.5039 0
1.18 0.50995 0
1.18 0.516 0
1.18 0.52205 0
1.18 0.5281 0
1.18 0.53415 0
1.18 0.5402 0
1.18 0.54625 0
1.18 0.5523 0
1.18 0.55835 0
1.18 0.5644 0
1.18 0.57045 0
1.18 0.5765 0
1.18 0.58255 0
1.18 0.5886 0
1.18 0.59465 0
1.18 0.6007 0
1.18 0.60675 0
1.18 0.6128 0
1.18 0.61885 0
1.18 0.6249 0
1.18 0.63095 0
1.18 0.637 0
1.18 0.64305 0
1.18 0.6491 0
1.18 0.65515 0
1.18 0.6612 0
1.18 0.66725 0
1.18 0.6733 0
1.18 0.67935 0
1.18 0.6854 0
1.18 0.69145 0
1.18 0.6975 0
1.18 0.70355 0
1.18 0.7096 0
1.18 0.71565 0
1.18 0.7217 0
1.18 0.72775 0
1.18 0.7338 0
1.18 0.73985 0
1.18 0.7459 0
1.18 0.75195 0
1.18 0.758 0
1.18 0.76405 0
1.18 0.7701 0
1.18 0.77615 0
1.18 0.7822 0
1.18 0.78825 0
1.18 0.7943 0
1.18 0.80035 0
1.18 0.8064 0
1.18 0.81245 0
1.18 0.8185 0
1.18 0.82455 0
1.18 0.8306 0
1.18 0.83665 0
1.18 0.8427 0
1.18 0.84875 0
1.18 0.8548 0
1.18 0.86085 0
1.18 0.8669 0
1.18 0.87295 0
1.18 0.879 0
1.18 0.88505 0
1.18 0.8911 0
1.18 0.89715 0
1.18 0.9032 0
1.18 0.90925 0
1.18 0.9153 0
1.18 0.92135 0
1.18 0.9274 0
1.18 0.93345 0
1.18 0.9395 0
1.18 0.94555 0
1.18 0.9516 0
1.18 0.95765 0
1.18 0.9637 0
1.18 0.96975 0
1.18 0.9758 0
1.18 0.98185 0
1.18 0.9879 0
1.18 0.99395 0
1.18 1 0
1.2 0.4 0
1.2 0.406 0
1.2 0.412 0
1.2 0.418 0
1.2 0.424 0
1.2 0.43 0
1.2 0.436 0
1.2 0.442 0
1.2 0.448 0
1.2 0.454 0
1.2 0.46 0
1.2 0.466 0
1.2 0.472 0
1.2 0.478 0
1.2 0.484 0
1.2 0.49 0
1.2 0.496 0
1.2 0.502 0
1.2 0.508 0
1.2 0.514 0
1.2 0.52 0
1.2 0.526 0
1.2 0.532 0
1.2 0.538 0
1.2 0.544 0
1.2 0.55 0
1.2 0.556 0
1.2 0.562 0
1.2 0.568 0
1.2 0.574 0
1.2 0.58 0
1.2 0.586 0
1.2 0.592 0
1.2 0.598 0
1.2 0.604 0
1.2 0.61 0
1.2 0.616 0
1.2 0.622 0
1.2 0.628 0
1.2 0.634 0
1.2 0.64 0
1.2 0.646 0
1.2 0.652 0
1.2 0.658 0
1.2 0.664 0
1.2 0.67 0
1.2 0.676 0
1.2 0.682 0
1.2 0.688 0
1.2 0.694 0
1.2 0.7 0
1.2 0.706 0
1.2 0.712 0
1.2 0.718 0
1.2 0.724 0
1.2 0.73 0
1.2 0.736 0
1.2 0.742 0
1.2 0.748 0
1.2 0.754 0
1.2 0.76 0
1.2 0.766 0
1.2 0.772 0
1.2 0.778 0
1.2 0.784 0
1.2 0.79 0
1.2 0.796 0
1.2 0.802 0
1.2 0.808 0
1.2 0.814 0
1.2 0.82 0
1.2 0.826 0
1.2 0.832 0
1.2 0.838 0
1.2 0.844 0
1.2 0.85 0
1.2 0.856 0
1.2 0.862 0
1.2 0.868 0
1.2 0.874 0
1.2 0.88 0
1.2 0.886 0
1.2 0.892 0
1.2 0.898 0
1.2 0.904 0
1.2 0.91 0
1.2 0.916 0
1.2 0.922 0
1.2 0.928 0
1.2 0.934 0
1.2 0.94 0
1.2 0.946 0
1.2 0.952 0
1.2 0.958 0
1.2 0.964 0
1.2 0.97 0
1.2 0.976 0
1.2 0.982 0
1.2 0.988 0
1.2 0.994 0
1.2 1 0
1.22 0.405 0
1.22 0.41095 0
1.22 0.4169 0
1.22 0.42285 0
1.22 0.4288 0
1.22 0.43475 0
1.22 0.4407 0
1.22 0.44665 0
1.22 0.4526 0
1.22 0.45855 0
1.22 0.4645 0
1.22 0.47045 0
1.22 0.4764 0
1.22 0.48235 0
1.22 0.4883 0
1.22 0.49425 0
1.22 0.5002 0
1.22 0.50615 0
1.22 0.5121 0
1.22 0.51805 0
1.22 0.524 0
1.22 0.52995 0
1.22 0.5359 0
1.22 0.54185 0
1.22 0.5478 0
1.22 0.55375 0
1.22 0.5597 0
1.22 0.56565 0
1.22 0.5716 0
1.22 0.57755 0
1.22 0.5835 0
1.22 0.58945 0
1.22 0.5954 0
1.22 0.60135 0
1.22 0.6073 0
1.22 0.61325 0
1.22 0.6192 0
1.22 0.62515 0
1.22 0.6311 0
1.22 0.63705 0
1.22 0.643 0
1.22 0.64895 0
1.22 0.6549 0
1.22 0.66085 0
1.22 0.6668 0
1.22 0.67275 0
1.22 0.6787 0
1.22 0.68465 0
1.22 0.6906 0
1.22 0.69655 0
1.22 0.7025 0
1.22 0.70845 0
1.22 0.7144 0
1.22 0.72035 0
1.22 0.7263 0
1.22 0.73225 0
1.22 0.7382 0
1.22 0.74415 0
1.22 0.7501 0
1.22 0.75605 0
1.22 0.762 0
1.22 0.76795 0
1.22 0.7739 0
1.22 0.77985 0
1.22 0.7858 0
1.22 0.79175 0
1.22 0.7977 0
1.22 0.80365 0
1.22 0.8096 0
1.22 0.81555 0
1.22 0.8215 0
1.22 0.82745 0
1.22 0.8334 0
1.22 0.83935 0
1.22 0.8453 0
1.22 0.85125 0
1.22 0.8572 0
1.22 0.86315 0
1.22 0.8691 0
1.22 0.87505 0
1.22 0.881 0
1.22 0.88695 0
1.22 0.8929 0
1.22 0.89885 0
1.22 0.9048 0
1.22 0.91075 0
1.22 0.9167 0
1.22 0.92265 0
1.22 0.9286 0
1.22 0.93455 0
1.22 0.9405 0
1.22 0.94645 0
1.22 0.9524 0
1.22 0.95835 0
1.22 0.9643 0
1.22 0.97025 0
1.22 0.9762 0
1.22 0.98215 0
1.22 0.9881 0
1.22 0.99405 0
1.22 1 0
1.24 0.41 0
1.24 0.4159 0
1.24 0.4218 0
1.24 0.4277 0
1.24 0.4336 0
1.24 0.4395 0
1.24 0.4454 0
1.24 0.4513 0
1.24 0.4572 0
1.24 0.4631 0
1.24 0.469 0
1.24 0.4749 0
1.24 0.4808 0
1.24 0.4867 0
1.24 0.4926 0
1.24 0.4985 0
1.24 0.5044 0
1.24 0.5103 0
1.24 0.5162 0
1.24 0.5221 0
1.24 0.528 0
1.24 0.5339 0
1.24 0.5398 0
1.24 0.5457 0
1.24 0.5516 0
1.24 0.5575 0
1.24 0.5634 0
1.24 0.5693 0
1.24 0.5752 0
1.24 0.5811 0
1.24 0.587 0
1.24 0.5929 0
1.24 0.5988 0
1.24 0.6047 0
1.24 0.6106 0
1.24 0.6165 0
1.24 0.6224 0
1.24 0.6283 0
1.24 0.6342 0
1.24 0.6401 0
1.24 0.646 0
1.24 0.6519 0
1.24 0.6578 0
1.24 0.6637 0
1.24 0.6696 0
1.24 0.6755 0
1.24 0.6814 0
1.24 0.6873 0
1.24 0.6932 0
1.24 0.6991 0
1.24 0.705 0
1.24 0.7109 0
1.24 0.7168 0
1.24 0.7227 0
1.24 0.7286 0
1.24 0.7345 0
1.24 0.7404 0
1.24 0.7463 0
1.24 0.7522 0
1.24 0.7581 0
1.24 0.764 0
1.24 0.7699 0
1.24 0.7758 0
1.24 0.7817 0
1.24 0.7876 0
1.24 0.7935 0
1.24 0.7994 0
1.24 0.8053 0
1.24 0.8112 0
1.24 0.8171 0
1.24 0.823 0
1.24 0.8289 0
1.24 0.8348 0
1.24 0.8407 0
1.24 0.8466 0
1.24 0.8525 0
1.24 0.8584 0
1.24 0.8643 0
1.24 0.8702 0
1.24 0.8761 0
1.24 0.882 0
1.24 0.8879 0
1.24 0.8938 0
1.24 0.8997 0
1.24 0.9056 0
1.24 0.9115 0
1.24 0.9174 0
1.24 0.9233 0
1.24 0.9292 0
1.24 0.9351 0
1.24 0.941 0
1.24 0.9469 0
1.24 0.9528 0
1.24 0.9587 0
1.24 0.9646 0
1.24 0.9705 0
1.24 0.9764 0
1.24 0.9823 0
1.24 0.9882 0
1.24 0.9941 0
1.24 1 0
1.26 0.415 0
1.26 0.42085 0
1.26 0.4267 0
1.26 0.43255 0
1.26 0.4384 0
1.26 0.44425 0
1.26 0.4501 0
1.26 0.45595 0
1.26 0.4618 0
1.26 0.46765 0
1.26 0.4735 0
1.26 0.47935 0
1.26 0.4852 0
1.26 0.49105 0
1.26 0.4969 0
1.26 0.50275 0
1.26 0.5086 0
1.26 0.51445 0
1.26 0.5203 0
1.26 0.52615 0
1.26 0.532 0
1.26 0.53785 0
1.26 0.5437 0
1.26 0.54955 0
1.26 0.5554 0
1.26 0.56125 0
1.26 0.5671 0
1.26 0.57295 0
1.26 0.5788 0
1.26 0.58465 0
1.26 0.5905 0
1.26 0.59635 0
1.26 0.6022 0
1.26 0.60805 0
1.26 0.6139 0
1.26 0.61975 0
1.26 0.6256 0
1.26 0.63145 0
1.26 0.6373 0
1.26 0.64315 0
1.26 0.649 0
1.26 0.65485 0
1.26 0.6607 0
1.26 0.66655 0
1.26 0.6724 0
1.26 0.67825 0
1.26 0.6841 0
1.26 0.68995 0
1.26 0.6958 0
1.26 0.70165 0
1.26 0.7075 0
1.26 0.71335 0
1.26 0.7192 0
1.26 0.72505 0
1.26 0.7309 0
1.26 0.73675 0
1.26 0.7426 0
1.26 0.74845 0
1.26 0.7543 0
1.26 0.76015 0
1.26 0.766 0
1.26 0.77185 0
1.26 0.7777 0
1.26 0.78355 0
1.26 0.7894 0
1.26 0.79525 0
1.26 0.8011 0
1.26 0.80695 0
1.26 0.8128 0
1.26 0.81865 0
1.26 0.8245 0
1.26 0.83035 0
1.26 0.8362 0
1.26 0.84205 0
1.26 0.8479 0
1.26 0.85375 0
1.26 0.8596 0
1.26 0.86545 0
1.26 0.8713 0
1.26 0.87715 0
1.26 0.883 0
1.26 0.88885 0
1.26 0.8947 0
1.26 0.90055 0
1.26 0.9064 0
1.26 0.91225 0
1.26 0.9181 0
1.26 0.92395 0
1.26 0.9298 0
1.26 0.93565 0
1.26 0.9415 0
1.26 0.94735 0
1.26 0.9532 0
1.26 0.95905 0
1.26 0.9649 0
1.26 0.97075 0
1.26 0.9766 0
1.26 0.98245 0
1.26 0.9883 0
1.26 0.99415 0
1.26 1 0
1.28 0.42 0
1.28 0.4258 0
1.28 0.4316 0
1.28 0.4374 0
1.28 0.4432 0
1.28 0.449 0
1.28 0.4548 0
1.28 0.4606 0
1.28 0.4664 0
1.28 0.4722 0
1.28 0.478 0
1.28 0.4838 0
1.28 0.4896 0
1.28 0.4954 0
1.28 0.5012 0
1.28 0.507 0
1.28 0.5128 0
1.28 0.5186 0
1.28 0.5244 0
1.28 0.5302 0
1.28 0.536 0
1.28 0.5418 0
1.28 0.5476 0
1.28 0.5534 0
1.28 0.5592 0
1.28 0.565 0
1.28 0.5708 0
1.28 0.5766 0
1.28 0.5824 0
1.28 0.5882 0
1.28 0.594 0
1.28 0.5998 0
1.28 0.6056 0
1.28 0.6114 0
1.28 0.6172 0
1.28 0.623 0
1.28 0.6288 0
1.28 0.6346 0
1.28 0.6404 0
1.28 0.6462 0
1.28 0.652 0
1.28 0.6578 0
1.28 0.6636 0
1.28 0.6694 0
1.28 0.6752 0
1.28 0.681 0
1.28 0.6868 0
1.28 0.6926 0
1.28 0.6984 0
1.28 0.7042 0
1.28 0.71 0
1.28 0.7158 0
1.28 0.7216 0
1.28 0.7274 0
1.28 0.7332 0
1.28 0.739 0
1.28 0.7448 0
1.28 0.7506 0
1.28 0.7564 0
1.28 0.7622 0
1.28 0.768 0
1.28 0.7738 0
1.28 0.7796 0
1.28 0.7854 0
1.28 0.7912 0
1.28 0.797 0
1.28 0.8028 0
1.28 0.8086 0
1.28 0.8144 0
1.28 0.8202 0
1.28 0.826 0
1.28 0.8318 0
1.28 0.8376 0
1.28 0.8434 0
1.28 0.8492 0
1.28 0.855 0
1.28 0.8608 0
1.28 0.8666 0
1.28 0.8724 0
1.28 0.8782 0
1.28 0.884 0
1.28 0.8898 0
1.28 0.8956 0
1.28 0.9014 0
1.28 0.9072 0
1.28 0.913 0
1.28 0.9188 0
1.28 0.9246 0
1.28 0.9304 0
1.28 0.9362 0
1.28 0.942 0
1.28 0.9478 0
1.28 0.9536 0
1.28 0.9594 0
1.28 0.9652 0
1.28 0.971 0
1.28 0.9768 0
1.28 0.9826 0
1.28 0.9884 0
1.28 0.9942 0
1.28 1 0
1.3 0.425 0
1.3 0.43075 0
1.3 0.4365 0
1.3 0.44225 0
1.3 0.448 0
1.3 0.45375 0
1.3 0.4595 0
1.3 0.46525 0
1.3 0.471 0
1.3 0.47675 0
1.3 0.4825 0
1.3 0.48825 0
1.3 0.494 0
1.3 0.49975 0
1.3 0.5055 0
1.3 0.51125 0
1.3 0.517 0
1.3 0.52275 0
1.3 0.5285 0
1.3 0.53425 0
1.3 0.54 0
1.3 0.54575 0
1.3 0.5515 0
1.3 0.55725 0
1.3 0.563 0
1.3 0.56875 0
1.3 0.5745 0
1.3 0.58025 0
1.3 0.586 0
1.3 0.59175 0
1.3 0.5975 0
1.3 0.60325 0
1.3 0.609 0
1.3 0.61475 0
1.3 0.6205 0
1.3 0.62625 0
1.3 0.632 0
1.3 0.63775 0
1.3 0.6435 0
1.3 0.64925 0
1.3 0.655 0
1.3 0.66075 0
1.3 0.6665 0
1.3 0.67225 0
1.3 0.678 0
1.3 0.68375 0
1.3 0.6895 0
1.3 0.69525 0
1.3 0.701 0
1.3 0.70675 0
1.3 0.7125 0
1.3 0.71825 0
1.3 0.724 0
1.3 0.72975 0
1.3 0.7355 0
1.3 0.74125 0
1.3 0.747 0
1.3 0.75275 0
1.3 0.7585 0
1.3 0.76425 0
1.3 0.77 0
1.3 0.77575 0
1.3 0.7815 0
1.3 0.78725 0
1.3 0.793 0
1.3 0.79875 0
1.3 0.8045 0
1.3 0.81025 0
1.3 0.816 0
1.3 0.82175 0
1.3 0.8275 0
1.3 0.83325 0
1.3 0.839 0
1.3 0.84475 0
1.3 0.8505 0
1.3 0.85625 0
1.3 0.862 0
1.3 0.86775 0
1.3 0.8735 0
1.3 0.87925 0
1.3 0.885 0
1.3 0.89075 0
1.3 0.8965 0
1.3 0.90225 0
1.3 0.908 0
1.3 0.91375 0
1.3 0.9195 0
1.3 0.92525 0
1.3 0.931 0
1.3 0.93675 0
1.3 0.9425 0
1.3 0.94825 0
1.3 0.954 0
1.3 0.95975 0
1.3 0.9655 0
1.3 0.97125 0
1.3 0.977 0
1.3 0.98275 0
1.3 0.9885 0
1.3 0.99425 0
1.3 1 0
1.32 0.43 0
1.32 0.4357 0
1.32 0.4414 0
1.32 0.4471 0
1.32 0.4528 0
1.32 0.4585 0
1.32 0.4642 0
1.32 0.4699 0
1.32 0.4756 0
1.32 0.4813 0
1.32 0.487 0
1.32 0.4927 0
1.32 0.4984 0
1.32 0.5041 0
1.32 0.5098 0
1.32 0.5155 0
1.32 0.5212 0
1.32 0.5269 0
1.32 0.5326 0
1.32 0.5383 0
1.32 0.544 0
1.32 0.5497 0
1.32 0.5554 0
1.32 0.5611 0
1.32 0.5668 0
1.32 0.5725 0
1.32 0.5782 0
1.32 0.5839 0
1.32 0.5896 0
1.32 0.5953 0
1.32 0.601 0
1.32 0.6067 0
1.32 0.6124 0
1.32 0.6181 0
1.32 0.6238 0
1.32 0.6295 0
1.32 0.6352 0
1.32 0.6409 0
1.32 0.6466 0
1.32 0.6523 0
1.32 0.658 0
1.32 0.6637 0
1.32 0.6694 0
1.32 0.6751 0
1.32 0.6808 0
1.32 0.6865 0
1.32 0.6922 0
1.32 0.6979 0
1.32 0.7036 0
1.32 0.7093 0
1.32 0.715 0
1.32 0.7207 0
1.32 0.7264 0
1.32 0.7321 0
1.32 0.7378 0
1.32 0.7435 0
1.32 0.7492 0
1.32 0.7549 0
1.32 0.7606 0
1.32 0.7663 0
1.32 0.772 0
1.32 0.7777 0
1.32 0.7834 0
1.32 0.7891 0
1.32 0.7948 0
1.32 0.8005 0
1.32 0.8062 0
1.32 0.8119 0
1.32 0.8176 0
1.32 0.8233 0
1.32 0.829 0
1.32 0.8347 0
1.32 0.8404 0
1.32 0.8461 0
1.32 0.8518 0
1.32 0.8575 0
1.32 0.8632 0
1.32 0.8689 0
1.32 0.8746 0
1.32 0.8803 0
1.32 0.886 0
1.32 0.8917 0
1.32 0.8974 0
1.32 0.9031 0
1.32 0.9088 0
1.32 0.9145 0
1.32 0.9202 0
1.32 0.9259 0
1.32 0.9316 0
1.32 0.9373 0
1.32 0.943 0
1.32 0.9487 0
1.32 0.9544 0
1.32 0.9601 0
1.32 0.9658 0
1.32 0.9715 0
1.32 0.9772 0
1.32 0.9829 0
1.32 0.9886 0
1.32 0.9943 0
1.32 1 0
1.34 0.435 0
1.34 0.44065 0
1.34 0.4463 0
1.34 0.45195 0
1.34 0.4576 0
1.34 0.46325 0
1.34 0.4689 0
1.34 0.47455 0
1.34 0.4802 0
1.34 0.48585 0
1.34 0.4915 0
1.34 0.49715 0
1.34 0.5028 0
1.34 0.50845 0
1.34 0.5141 0
1.34 0.51975 0
1.34 0.5254 0
1.34 0.53105 0
1.34 0.5367 0
1.34 0.54235 0
1.34 0.548 0
1.34 0.55365 0
1.34 0.5593 0
1.34 0.56495 0
1.34 0.5706 0
1.34 0.57625 0
1.34 0.5819 0
1.34 0.58755 0
1.34 0.5932 0
1.34 0.59885 0
1.34 0.6045 0
1.34 0.61015 0
1.34 0.6158 0
1.34 0.62145 0
1.34 0.6271 0
1.34 0.63275 0
1.34 0.6384 0
1.34 0.64405 0
1.34 0.6497 0
1.34 0.65535 0
1.34 0.661 0
1.34 0.66665 0
1.34 0.6723 0
1.34 0.67795 0
1.34 0.6836 0
1.34 0.68925 0
1.34 0.6949 0
1.34 0.70055 0
1.34 0.7062 0
1.34 0.71185 0
1.34 0.7175 0
1.34 0.72315 0
1.34 0.7288 0
1.34 0.73445 0
1.34 0.7401 0
1.34 0.74575 0
1.34 0.7514 0
1.34 0.75705 0
1.34 0.7627 0
1.34 0.76835 0
1.34 0.774 0
1.34 0.77965 0
1.34 0.7853 0
1.34 0.79095 0
1.34 0.7966 0
1.34 0.80225 0
1.34 0.8079 0
1.34 0.81355 0
1.34 0.8192 0
1.34 0.82485 0
1.34 0.8305 0
1.34 0.83615 0
1.34 0.8418 0
1.34 0.84745 0
1.34 0.8531 0
1.34 0.85875 0
1.34 0.8644 0
1.34 0.87005 0
1.34 0.8757 0
1.34 0.88135 0
1.34 0.887 0
1.34 0.89265 0
1.34 0.8983 0
1.34 0.90395 0
1.34 0.9096 0
1.34 0.91525 0
1.34 0.9209 0
1.34 0.92655 0
1.34 0.9322 0
1.34 0.93785 0
1.34 0.9435 0
1.34 0.94915 0
1.34 0.9548 0
1.34 0.96045 0
1.34 0.9661 0
1.34 0.97175 0
1.34 0.9774 0
1.34 0.98305 0
1.34 0.9887 0
1.34 0.99435 0
1.34 1 0
1.36 0.44 0
1.36 0.4456 0
1.36 0.4512 0
1.36 0.4568 0
1.36 0.4624 0
1.36 0.468 0
1.36 0.4736 0
1.36 0.4792 0
1.36 0.4848 0
1.36 0.4904 0
1.36 0.496 0
1.36 0.5016 0
1.36 0.5072 0
1.36 0.5128 0
1.36 0.5184 0
1.36 0.524 0
1.36 0.5296 0
1.36 0.5352 0
1.36 0.5408 0
1.36 0.5464 0
1.36 0.552 0
1.36 0.5576 0
1.36 0.5632 0
1.36 0.5688 0
1.36 0.5744 0
1.36 0.58 0
1.36 0.5856 0
1.36 0.5912 0
1.36 0.5968 0
1.36 0.6024 0
1.36 0.608 0
1.36 0.6136 0
1.36 0.6192 0
1.36 0.6248 0
1.36 0.6304 0
1.36 0.636 0
1.36 0.6416 0
1.36 0.6472 0
1.36 0.6528 0
1.36 0.6584 0
1.36 0.664 0
1.36 0.6696 0
1.36 0.6752 0
1.36 0.6808 0
1.36 0.6864 0
1.36 0.692 0
1.36 0.6976 0
1.36 0.7032 0
1.36 0.7088 0
1.36 0.7144 0
1.36 0.72 0
1.36 0.7256 0
1.36 0.7312 0
1.36 0.7368 0
1.36 0.7424 0
1.36 0.748 0
1.36 0.7536 0
1.36 0.7592 0
1.36 0.7648 0
1.36 0.7704 0
1.36 0.776 0
1.36 0.7816 0
1.36 0.7872 0
1.36 0.7928 0
1.36 0.7984 0
1.36 0.804 0
1.36 0.8096 0
1.36 0.8152 0
1.36 0.8208 0
1.36 0.8264 0
1.36 0.832 0
1.36 0.8376 0
1.36 0.8432 0
1.36 0.8488 0
1.36 0.8544 0
1.36 0.86 0
1.36 0.8656 0
1.36 0.8712 0
1.36 0.8768 0
1.36 0.8824 0
1.36 0.888 0
1.36 0.8936 0
1.36 0.8992 0
1.36 0.9048 0
1.36 0.9104 0
1.36 0.916 0
1.36 0.9216 0
1.36 0.9272 0
1.36 0.9328 0
1.36 0.9384 0
1.36 0.944 0
1.36 0.9496 0
1.36 0.9552 0
1.36 0.9608 0
1.36 0.9664 0
1.36 0.972 0
1.36 0.9776 0
1.36 0.9832 0
1.36 0.9888 0
1.36 0.9944 0
1.36 1 0
1.38 0.445 0
1.38 0.45055 0
1.38 0.4561 0
1.38 0.46165 0
1.38 0.4672 0
1.38 0.47275 0
1.38 0.4783 0
1.38 0.48385 0
1.38 0.4894 0
1.38 0.49495 0
1.38 0.5005 0
1.38 0.50605 0
1.38 0.5116 0
1.38 0.51715 0
1.38 0.5227 0
1.38 0.52825 0
1.38 0.5338 0
1.38 0.53935 0
1.38 0.5449 0
1.38 0.55045 0
1.38 0.556 0
1.38 0.56155 0
1.38 0.5671 0
1.38 0.57265 0
1.38 0.5782 0
1.38 0.58375 0
1.38 0.5893 0
1.38 0.59485 0
1.38 0.6004 0
1.38 0.60595 0
1.38 0.6115 0
1.38 0.61705 0
1.38 0.6226 0
1.38 0.62815 0
1.38 0.6337 0
1.38 0.63925 0
1.38 0.6448 0
1.38 0.65035 0
1.38 0.6559 0
1.38 0.66145 0
1.38 0.667 0
1.38 0.67255 0
1.38 0.6781 0
1.38 0.68365 0
1.38 0.6892 0
1.38 0.69475 0
1.38 0.7003 0
1.38 0.70585 0
1.38 0.7114 0
1.38 0.71695 0
1.38 0.7225 0
1.38 0.72805 0
1.38 0.7336 0
1.38 0.73915 0
1.38 0.7447 0
1.38 0.75025 0
1.38 0.7558 0
1.38 0.76135 0
1.38 0.7669 0
1.38 0.77245 0
1.38 0.778 0
1.38 0.78355 0
1.38 0.7891 0
1.38 0.79465 0
1.38 0.8002 0
1.38 0.80575 0
1.38 0.8113 0
1.38 0.81685 0
1.38 0.8224 0
1.38 0.82795 0
1.38 0.8335 0
1.38 0.83905 0
1.38 0.8446 0
1.38 0.85015 0
1.38 0.8557 0
1.38 0.86125 0
1.38 0.8668 0
1.38 0.87235 0
1.38 0.8779 0
1.38 0.88345 0
1.38 0.889 0
1.38 0.89455 0
1.38 0.9001 0
1.38 0.90565 0
1.38 0.9112 0
1.38 0.91675 0
1.38 0.9223 0
1.38 0.92785 0
1.38 0.9334 0
1.38 0.93895 0
1.38 0.9445 0
1.38 0.95005 0
1.38 0.9556 0
1.38 0.96115 0
1.38 0.9667 0
1.38 0.97225 0
1.38 0.9778 0
1.38 0.98335 0
1.38 0.9889 0
1.38 0.99445 0
1.38 1 0
1.4 0.45 0
1.4 0.4555 0
1.4 0.461 0
1.4 0.4665 0
1.4 0.472 0
1.4 0.4775 0
1.4 0.483 0
1.4 0.4885 0
1.4 0.494 0
1.4 0.4995 0
1.4 0.505 0
1.4 0.5105 0
1.4 0.516 0
1.4 0.5215 0
1.4 0.527 0
1.4 0.5325 0
1.4 0.538 0
1.4 0.5435 0
1.4 0.549 0
1.4 0.5545 0
1.4 0.56 0
1.4 0.5655 0
1.4 0.571 0
1.4 0.5765 0
1.4 0.582 0
1.4 0.5875 0
1.4 0.593 0
1.4 0.5985 0
1.4 0.604 0
1.4 0.6095 0
1.4 0.615 0
1.4 0.6205 0
1.4 0.626 0
1.4 0.6315 0
1.4 0.637 0
1.4 0.6425 0
1.4 0.648 0
1.4 0.6535 0
1.4 0.659 0
1.4 0.6645 0
1.4 0.67 0
1.4 0.6755 0
1.4 0.681 0
1.4 0.6865 0
1.4 0.692 0
1.4 0.6975 0
1.4 0.703 0
1.4 0.7085 0
1.4 0.714 0
1.4 0.7195 0
1.4 0.725 0
1.4 0.7305 0
1.4 0.736 0
1.4 0.7415 0
1.4 0.747 0
1.4 0.7525 0
1.4 0.758 0
1.4 0.7635 0
1.4 0.769 0
1.4 0.7745 0
1.4 0.78 0
1.4 0.7855 0
1.4 0.791 0
1.4 0.7965 0
1.4 0.802 0
1.4 0.8075 0
1.4 0.813 0
1.4 0.8185 0
1.4 0.824 0
1.4 0.8295 0
1.4 0.835 0
1.4 0.8405 0
1.4 0.846 0
1.4 0.8515 0
1.4 0.857 0
1.4 0.8625 0
1.4 0.868 0
1.4 0.8735 0
1.4 0.879 0
1.4 0.8845 0
1.4 0.89 0
1.4 0.8955 0
1.4 0.901 0
1.4 0.9065 0
1.4 0.912 0
1.4 0.9175 0
1.4 0.923 0
1.4 0.9285 0
1.4 0.934 0
1.4 0.9395 0
1.4 0.945 0
1.4 0.9505 0
1.4 0.956 0
1.4 0.9615 0
1.4 0.967 0
1.4 0.9725 0
1.4 0.978 0
1.4 0.9835 0
1.4 0.989 0
1.4 0.9945 0
1.4 1 0
1.42 0.455 0
1.42 0.46045 0
1.42 0.4659 0
1.42 0.47135 0
1.42 0.4768 0
1.42 0.48225 0
1.42 0.4877 0
1.42 0.49315 0
1.42 0.4986 0
1.42 0.50405 0
1.42 0.5095 0
1.42 0.51495 0
1.42 0.5204 0
1.42 0.52585 0
1.42 0.5313 0
1.42 0.53675 0
1.42 0.5422 0
1.42 0.54765 0
1.42 0.5531 0
1.42 0.55855 0
1.42 0.564 0
1.42 0.56945 0
1.42 0.5749 0
1.42 0.58035 0
1.42 0.5858 0
1.42 0.59125 0
1.42 0.5967 0
1.42 0.60215 0
1.42 0.6076 0
1.42 0.61305 0
1.42 0.6185 0
1.42 0.62395 0
1.42 0.6294 0
1.42 0.63485 0
1.42 0.6403 0
1.42 0.64575 0
1.42 0.6512 0
1.42 0.65665 0
1.42 0.6621 0
1.42 0.66755 0
1.42 0.673 0
1.42 0.67845 0
1.42 0.6839 0
1.42 0.68935 0
1.42 0.6948 0
1.42 0.70025 0
1.42 0.7057 0
1.42 0.71115 0
1.42 0.7166 0
1.42 0.72205 0
1.42 0.7275 0
1.42 0.73295 0
1.42 0.7384 0
1.42 0.74385 0
1.42 0.7493 0
1.42 0.75475 0
1.42 0.7602 0
1.42 0.76565 0
1.42 0.7711 0
1.42 0.77655 0
1.42 0.782 0
1.42 0.78745 0
1.42 0.7929 0
1.42 0.79835 0
1.42 0.8038 0
1.42 0.80925 0
1.42 0.8147 0
1.42 0.82015 0
1.42 0.8256 0
1.42 0.83105 0
1.42 0.8365 0
1.42 0.84195 0
1.42 0.8474 0
1.42 0.85285 0
1.42 0.8583 0
1.42 0.86375 0
1.42 0.8692 0
1.42 0.87465 0
1.42 0.8801 0
1.42 0.88555 0
1.42 0.891 0
1.42 0.89645 0
1.42 0.9019 0
1.42 0.90735 0
1.42 0.9128 0
1.42 0.91825 0
1.42 0.9237 0
1.42 0.92915 0
1.42 0.9346 0
1.42 0.94005 0
1.42 0.9455 0
1.42 0.95095 0
1.42 0.9564 0
1.42 0.96185 0
1.42 0.9673 0
1.42 0.97275 0
1.42 0.9782 0
1.42 0.98365 0
1.42 0.9891 0
1.42 0.99455 0
1.42 1 0
1.44 0.46 0
1.44 0.4654 0
1.44 0.4708 0
1.44 0.4762 0
1.44 0.4816 0
1.44 0.487 0
1.44 0.4924 0
1.44 0.4978 0
1.44 0.5032 0
1.44 0.5086 0
1.44 0.514 0
1.44 0.5194 0
1.44 0.5248 0
1.44 0.5302 0
1.44 0.5356 0
1.44 0.541 0
1.44 0.5464 0
1.44 0.5518 0
1.44 0.5572 0
1.44 0.5626 0
1.44 0.568 0
1.44 0.5734 0
1.44 0.5788 0
1.44 0.5842 0
1.44 0.5896 0
1.44 0.595 0
1.44 0.6004 0
1.44 0.6058 0
1.44 0.6112 0
1.44 0.6166 0
1.44 0.622 0
1.44 0.6274 0
1.44 0.6328 0
1.44 0.6382 0
1.44 0.6436 0
1.44 0.649 0
1.44 0.6544 0
1.44 0.6598 0
1.44 0.6652 0
1.44 0.6706 0
1.44 0.676 0
1.44 0.6814 0
1.44 0.6868 0
1.44 0.6922 0
1.44 0.6976 0
1.44 0.703 0
1.44 0.7084 0
1.44 0.7138 0
1.44 0.7192 0
1.44 0.7246 0
1.44 0.73 0
1.44 0.7354 0
1.44 0.7408 0
1.44 0.7462 0
1.44 0.7516 0
1.44 0.757 0
1.44 0.7624 0
1.44 0.7678 0
1.44 0.7732 0
1.44 0.7786 0
1.44 0.784 0
1.44 0.7894 0
1.44 0.7948 0
1.44 0.8002 0
1.44 0.8056 0
1.44 0.811 0
1.44 0.8164 0
1.44 0.8218 0
1.44 0.8272 0
1.44 0.8326 0
1.44 0.838 0
1.44 0.8434 0
1.44 0.8488 0
1.44 0.8542 0
1.44 0.8596 0
1.44 0.865 0
1.44 0.8704 0
1.44 0.8758 0
1.44 0.8812 0
1.44 0.8866 0
1.44 0.892 0
1.44 0.8974 0
1.44 0.9028 0
1.44 0.9082 0
1.44 0.9136 0
1.44 0.919 0
1.44 0.9244 0
1.44 0.9298 0
1.44 0.9352 0
1.44 0.9406 0
1.44 0.946 0
1.44 0.9514 0
1.44 0.9568 0
1.44 0.9622 0
1.44 0.9676 0
1.44 0.973 0
1.44 0.9784 0
1.44 0.9838 0
1.44 0.9892 0
1.44 0.9946 0
1.44 1 0
1.46 0.465 0
1.46 0.47035 0
1.46 0.4757 0
1.46 0.48105 0
1.46 0.4864 0
1.46 0.49175 0
1.46 0.4971 0
1.46 0.50245 0
1.46 0.5078 0
1.46 0.51315 0
1.46 0.5185 0
1.46 0.52385 0
1.46 0.5292 0
1.46 0.53455 0
1.46 0.5399 0
1.46 0.54525 0
1.46 0.5506 0
1.46 0.55595 0
1.46 0.5613 0
1.46 0.56665 0
1.46 0.572 0
1.46 0.57735 0
1.46 0.5827 0
1.46 0.58805 0
1.46 0.5934 0
1.46 0.59875 0
1.46 0.6041 0
1.46 0.60945 0
1.46 0.6148 0
1.46 0.62015 0
1.46 0.6255 0
1.46 0.63085 0
1.46 0.6362 0
1.46 0.64155 0
1.46 0.6469 0
1.46 0.65225 0
1.46 0.6576 0
1.46 0.66295 0
1.46 0.6683 0
1.46 0.67365 0
1.46 0.679 0
1.46 0.68435 0
1.46 0.6897 0
1.46 0.69505 0
1.46 0.7004 0
1.46 0.70575 0
1.46 0.7111 0
1.46 0.71645 0
1.46 0.7218 0
1.46 0.72715 0
1.46 0.7325 0
1.46 0.73785 0
1.46 0.7432 0
1.46 0.74855 0
1.46 0.7539 0
1.46 0.75925 0
1.46 0.7646 0
1.46 0.76995 0
1.46 0.7753 0
1.46 0.78065 0
1.46 0.786 0
1.46 0.79135 0
1.46 0.7967 0
1.46 0.80205 0
1.46 0.8074 0
1.46 0.81275 0
1.46 0.8181 0
1.46 0.82345 0
1.46 0.8288 0
1.46 0.83415 0
1.46 0.8395 0
1.46 0.84485 0
1.46 0.8502 0
1.46 0.85555 0
1.46 0.8609 0
1.46 0.86625 0
1.46 0.8716 0
1.46 0.87695 0
1.46 0.8823 0
1.46 0.88765 0
1.46 0.893 0
1.46 0.89835 0
1.46 0.9037 0
1.46 0.90905 0
1.46 0.9144 0
1.46 0.91975 0
1.46 0.9251 0
1.46 0.93045 0
1.46 0.9358 0
1.46 0.94115 0
1.46 0.9465 0
1.46 0.95185 0
1.46 0.9572 0
1.46 0.96255 0
1.46 0.9679 0
1.46 0.97325 0
1.46 0.9786 0
1.46 0.98395 0
1.46 0.9893 0
1.46 0.99465 0
1.46 1 0
1.48 0.47 0
1.48 0.4753 0
1.48 0.4806 0
1.48 0.4859 0
1.48 0.4912 0
1.48 0.4965 0
1.48 0.5018 0
1.48 0.5071 0
1.48 0.5124 0
1.48 0.5177 0
1.48 0.523 0
1.48 0.5283 0
1.48 0.5336 0
1.48 0.5389 0
1.48 0.5442 0
1.48 0.5495 0
1.48 0.5548 0
1.48 0.5601 0
1.48 0.5654 0
1.48 0.5707 0
1.48 0.576 0
1.48 0.5813 0
1.48 0.5866 0
1.48 0.5919 0
1.48 0.5972 0
1.48 0.6025 0
1.48 0.6078 0
1.48 0.6131 0
1.48 0.6184 0
1.48 0.6237 0
1.48 0.629 0
1.48 0.6343 0
1.48 0.6396 0
1.48 0.6449 0
1.48 0.6502 0
1.48 0.6555 0
1.48 0.6608 0
1.48 0.6661 0
1.48 0.6714 0
1.48 0.6767 0
1.48 0.682 0
1.48 0.6873 0
1.48 0.6926 0
1.48 0.6979 0
1.48 0.7032 0
1.48 0.7085 0
1.48 0.7138 0
1.48 0.7191 0
1.48 0.7244 0
1.48 0.7297 0
1.48 0.735 0
1.48 0.7403 0
1.48 0.7456 0
1.48 0.7509 0
1.48 0.7562 0
1.48 0.7615 0
1.48 0.7668 0
1.48 0.7721 0
1.48 0.7774 0
1.48 0.7827 0
1.48 0.788 0
1.48 0.7933 0
1.48 0.7986 0
1.48 0.8039 0
1.48 0.8092 0
1.48 0.8145 0
1.48 0.8198 0
1.48 0.8251 0
1.48 0.8304 0
1.48 0.8357 0
1.48 0.841 0
1.48 0.8463 0
1.48 0.8516 0
1.48 0.8569 0
1.48 0.8622 0
1.48 0.8675 0
1.48 0.8728 0
1.48 0.8781 0
1.48 0.8834 0
1.48 0.8887 0
1.48 0.894 0
1.48 0.8993 0
1.48 0.9046 0
1.48 0.9099 0
1.48 0.9152 0
1.48 0.9205 0
1.48 0.9258 0
1.48 0.9311 0
1.48 0.9364 0
1.48 0.9417 0
1.48 0.947 0
1.48 0.9523 0
1.48 0.9576 0
1.48 0.9629 0
1.48 0.9682 0
1.48 0.9735 0
1.48 0.9788 0
1.48 0.9841 0
1.48 0.9894 0
1.48 0.9947 0
1.48 1 0
1.5 0.475 0
1.5 0.48025 0
1.5 0.4855 0
1.5 0.49075 0
1.5 0.496 0
1.5 0.50125 0
1.5 0.5065 0
1.5 0.51175 0
1.5 0.517 0
1.5 0.52225 0
1.5 0.5275 0
1.5 0.53275 0
1.5 0.538 0
1.5 0.54325 0
1.5 0.5485 0
1.5 0.55375 0
1.5 0.559 0
1.5 0.56425 0
1.5 0.5695 0
1.5 0.57475 0
1.5 0.58 0
1.5 0.58525 0
1.5 0.5905 0
1.5 0.59575 0
1.5 0.601 0
1.5 0.60625 0
1.5 0.6115 0
1.5 0.61675 0
1.5 0.622 0
1.5 0.62725 0
1.5 0.6325 0
1.5 0.63775 0
1.5 0.643 0
1.5 0.64825 0
1.5 0.6535 0
1.5 0.65875 0
1.5 0.664 0
1.5 0.66925 0
1.5 0.6745 0
1.5 0.67975 0
1.5 0.685 0
1.5 0.69025 0
1.5 0.6955 0
1.5 0.70075 0
1.5 0.706 0
1.5 0.71125 0
1.5 0.7165 0
1.5 0.72175 0
1.5 0.727 0
1.5 0.73225 0
1.5 0.7375 0
1.5 0.74275 0
1.5 0.748 0
1.5 0.75325 0
1.5 0.7585 0
1.5 0.76375 0
1.5 0.769 0
1.5 0.77425 0
1.5 0.7795 0
1.5 0.78475 0
1.5 0.79 0
1.5 0.79525 0
1.5 0.8005 0
1.5 0.80575 0
1.5 0.811 0
1.5 0.81625 0
1.5 0.8215 0
1.5 0.82675 0
1.5 0.832 0
1.5 0.83725 0
1.5 0.8425 0
1.5 0.84775 0
1.5 0.853 0
1.5 0.85825 0
1.5 0.8635 0
1.5 0.86875 0
1.5 0.874 0
1.5 0.87925 0
1.5 0.8845 0
1.5 0.88975 0
1.5 0.895 0
1.5 0.90025 0
1.5 0.9055 0
1.5 0.91075 0
1.5 0.916 0
1.5 0.92125 0
1.5 0.9265 0
1.5 0.93175 0
1.5 0.937 0
1.5 0.94225 0
1.5 0.9475 0
1.5 0.95275 0
1.5 0.958 0
1.5 0.96325 0
1.5 0.9685 0
1.5 0.97375 0
1.5 0.979 0
1.5 0.98425 0
1.5 0.9895 0
1.5 0.99475 0
1.5 1 0
1.52 0.48 0
1.52 0.4852 0
1.52 0.4904 0
1.52 0.4956 0
1.52 0.5008 0
1.52 0.506 0
1.52 0.5112 0
1.52 0.5164 0
1.52 0.5216 0
1.52 0.5268 0
1.52 0.532 0
1.52 0.5372 0
1.52 0.5424 0
1.52 0.5476 0
1.52 0.5528 0
1.52 0.558 0
1.52 0.5632 0
1.52 0.5684 0
1.52 0.5736 0
1.52 0.5788 0
1.52 0.584 0
1.52 0.5892 0
1.52 0.5944 0
1.52 0.5996 0
1.52 0.6048 0
1.52 0.61 0
1.52 0.6152 0
1.52 0.6204 0
1.52 0.6256 0
1.52 0.6308 0
1.52 0.636 0
1.52 0.6412 0
1.52 0.6464 0
1.52 0.6516 0
1.52 0.6568 0
1.52 0.662 0
1.52 0.6672 0
1.52 0.6724 0
1.52 0.6776 0
1.52 0.6828 0
1.52 0.688 0
1.52 0.6932 0
1.52 0.6984 0
1.52 0.7036 0
1.52 0.7088 0
1.52 0.714 0
1.52 0.7192 0
1.52 0.7244 0
1.52 0.7296 0
1.52 0.7348 0
1.52 0.74 0
1.52 0.7452 0
1.52 0.7504 0
1.52 0.7556 0
1.52 0.7608 0
1.52 0.766 0
1.52 0.7712 0
1.52 0.7764 0
1.52 0.7816 0
1.52 0.7868 0
1.52 0.792 0
1.52 0.7972 0
1.52 0.8024 0
1.52 0.8076 0
1.52 0.8128 0
1.52 0.818 0
1.52 0.8232 0
1.52 0.8284 0
1.52 0.8336 0
1.52 0.8388 0
1.52 0.844 0
1.52 0.8492 0
1.52 0.8544 0
1.52 0.8596 0
1.52 0.8648 0
1.52 0.87 0
1.52 0.8752 0
1.52 0.8804 0
1.52 0.8856 0
1.52 0.8908 0
1.52 0.896 0
1.52 0.9012 0
1.52 0.9064 0
1.52 0.9116 0
1.52 0.9168 0
1.52 0.922 0
1.52 0.9272 0
1.52 0.9324 0
1.52 0.9376 0
1.52 0.9428 0
1.52 0.948 0
1.52 0.9532 0
1.52 0.9584 0
1.52 0.9636 0
1.52 0.9688 0
1.52 0.974 0
1.52 0.9792 0
1.52 0.9844 0
1.52 0.9896 0
1.52 0.9948 0
1.52 1 0
1.54 0.485 0
1.54 0.49015 0
1.54 0.4953 0
1.54 0.50045 0
1.54 0.5056 0
1.54 0.51075 0
1.54 0.5159 0
1.54 0.52105 0
1.54 0.5262 0
1.54 0.53135 0
1.54 0.5365 0
1.54 0.54165 0
1.54 0.5468 0
1.54 0.55195 0
1.54 0.5571 0
1.54 0.56225 0
1.54 0.5674 0
1.54 0.57255 0
1.54 0.5777 0
1.54 0.58285 0
1.54 0.588 0
1.54 0.59315 0
1.54 0.5983 0
1.54 0.60345 0
1.54 0.6086 0
1.54 0.61375 0
1.54 0.6189 0
1.54 0.62405 0
1.54 0.6292 0
1.54 0.63435 0
1.54 0.6395 0
1.54 0.64465 0
1.54 0.6498 0
1.54 0.65495 0
1.54 0.6601 0
1.54 0.66525 0
1.54 0.6704 0
1.54 0.67555 0
1.54 0.6807 0
1.54 0.68585 0
1.54 0.691 0
1.54 0.69615 0
1.54 0.7013 0
1.54 0.70645 0
1.54 0.7116 0
1.54 0.71675 0
1.54 0.7219 0
1.54 0.72705 0
1.54 0.7322 0
1.54 0.73735 0
1.54 0.7425 0
1.54 0.74765 0
1.54 0.7528 0
1.54 0.75795 0
1.54 0.7631 0
1.54 0.76825 0
1.54 0.7734 0
1.54 0.77855 0
1.54 0.7837 0
1.54 0.78885 0
1.54 0.794 0
1.54 0.79915 0
1.54 0.8043 0
1.54 0.80945 0
1.54 0.8146 0
1.54 0.81975 0
1.54 0.8249 0
1.54 0.83005 0
1.54 0.8352 0
1.54 0.84035 0
1.54 0.8455 0
1.54 0.85065 0
1.54 0.8558 0
1.54 0.86095 0
1.54 0.8661 0
1.54 0.87125 0
1.54 0.8764 0
1.54 0.88155 0
1.54 0.8867 0
1.54 0.89185 0
1.54 0.897 0
1.54 0.90215 0
1.54 0.9073 0
1.54 0.91245 0
1.54 0.9176 0
1.54 0.92275 0
1.54 0.9279 0
1.54 0.93305 0
1.54 0.9382 0
1.54 0.94335 0
1.54 0.9485 0
1.54 0.95365 0
1.54 0.9588 0
1.54 0.96395 0
1.54 0.9691 0
1.54 0.97425 0
1.54 0.9794 0
1.54 0.98455 0
1.54 0.9897 0
1.54 0.99485 0
1.54 1 0
1.56 0.49 0
1.56 0.4951 0
1.56 0.5002 0
1.56 0.5053 0
1.56 0.5104 0
1.56 0.5155 0
1.56 0.5206 0
1.56 0.5257 0
1.56 0.5308 0
1.56 0.5359 0
1.56 0.541 0
1.56 0.5461 0
1.56 0.5512 0
1.56 0.5563 0
1.56 0.5614 0
1.56 0.5665 0
1.56 0.5716 0
1.56 0.5767 0
1.56 0.5818 0
1.56 0.5869 0
1.56 0.592 0
1.56 0.5971 0
1.56 0.6022 0
1.56 0.6073 0
1.56 0.6124 0
1.56 0.6175 0
1.56 0.6226 0
1.56 0.6277 0
1.56 0.6328 0
1.56 0.6379 0
1.56 0.643 0
1.56 0.6481 0
1.56 0.6532 0
1.56 0.6583 0
1.56 0.6634 0
1.56 0.6685 0
1.56 0.6736 0
1.56 0.6787 0
1.56 0.6838 0
1.56 0.6889 0
1.56 0.694 0
1.56 0.6991 0
1.56 0.7042 0
1.56 0.7093 0
1.56 0.7144 0
1.56 0.7195 0
1.56 0.7246 0
1.56 0.7297 0
1.56 0.7348 0
1.56 0.7399 0
1.56 0.745 0
1.56 0.7501 0
1.56 0.7552 0
1.56 0.7603 0
1.56 0.7654 0
1.56 0.7705 0
1.56 0.7756 0
1.56 0.7807 0
1.56 0.7858 0
1.56 0.7909 0
1.56 0.796 0
1.56 0.8011 0
1.56 0.8062 0
1.56 0.8113 0
1.56 0.8164 0
1.56 0.8215 0
1.56 0.8266 0
1.56 0.8317 0
1.56 0.8368 0
1.56 0.8419 0
1.56 0.847 0
1.56 0.8521 0
1.56 0.8572 0
1.56 0.8623 0
1.56 0.8674 0
1.56 0.8725 0
1.56 0.8776 0
1.56 0.8827 0
1.56 0.8878 0
1.56 0.8929 0
1.56 0.898 0
1.56 0.9031 0
1.56 0.9082 0
1.56 0.9133 0
1.56 0.9184 0
1.56 0.9235 0
1.56 0.9286 0
1.56 0.9337 0
1.56 0.9388 0
1.56 0.9439 0
1.56 0.949 0
1.56 0.9541 0
1.56 0.9592 0
1.56 0.9643 0
1.56 0.9694 0
1.56 0.9745 0
1.56 0.9796 0
1.56 0.9847 0
1.56 0.9898 0
1.56 0.9949 0
1.56 1 0
1.58 0.495 0
1.58 0.50005 0
1.58 0.5051 0
1.58 0.51015 0
1.58 0.5152 0
1.58 0.52025 0
1.58 0.5253 0
1.58 0.53035 0
1.58 0.5354 0
1.58 0.54045 0
1.58 0.5455 0
1.58 0.55055 0
1.58 0.5556 0
1.58 0.56065 0
1.58 0.5657 0
1.58 0.57075 0
1.58 0.5758 0
1.58 0.58085 0
1.58 0.5859 0
1.58 0.59095 0
1.58 0.596 0
1.58 0.60105 0
1.58 0.6061 0
1.58 0.61115 0
1.58 0.6162 0
1.58 0.62125 0
1.58 0.6263 0
1.58 0.63135 0
1.58 0.6364 0
1.58 0.64145 0
1.58 0.6465 0
1.58 0.65155 0
1.58 0.6566 0
1.58 0.66165 0
1.58 0.6667 0
1.58 0.67175 0
1.58 0.6768 0
1.58 0.68185 0
1.58 0.6869 0
1.58 0.69195 0
1.58 0.697 0
1.58 0.70205 0
1.58 0.7071 0
1.58 0.71215 0
1.58 0.7172 0
1.58 0.72225 0
1.58 0.7273 0
1.58 0.73235 0
1.58 0.7374 0
1.58 0.74245 0
1.58 0.7475 0
1.58 0.75255 0
1.58 0.7576 0
1.58 0.76265 0
1.58 0.7677 0
1.58 0.77275 0
1.58 0.7778 0
1.58 0.78285 0
1.58 0.7879 0
1.58 0.79295 0
1.58 0.798 0
1.58 0.80305 0
1.58 0.8081 0
1.58 0.81315 0
1.58 0.8182 0
1.58 0.82325 0
1.58 0.8283 0
1.58 0.83335 0
1.58 0.8384 0
1.58 0.84345 0
1.58 0.8485 0
1.58 0.85355 0
1.58 0.8586 0
1.58 0.86365 0
1.58 0.8687 0
1.58 0.87375 0
1.58 0.8788 0
1.58 0.88385 0
1.58 0.8889 0
1.58 0.89395 0
1.58 0.899 0
1.58 0.90405 0
1.58 0.9091 0
1.58 0.91415 0
1.58 0.9192 0
1.58 0.92425 0
1.58 0.9293 0
1.58 0.93435 0
1.58 0.9394 0
1.58 0.94445 0
1.58 0.9495 0
1.58 0.95455 0
1.58 0.9596 0
1.58 0.96465 0
1.58 0.9697 0
1.58 0.97475 0
1.58 0.9798 0
1.58 0.98485 0
1.58 0.9899 0
1.58 0.99495 0
1.58 1 0
1.6 0.5 0
1.6 0.505 0
1.6 0.51 0
1.6 0.515 0
1.6 0.52 0
1.6 0.525 0
1.6 0.53 0
1.6 0.535 0
1.6 0.54 0
1.6 0.545 0
1.6 0.55 0
1.6 0.555 0
1.6 0.56 0
1.6 0.565 0
1.6 0.57 0
1.6 0.575 0
1.6 0.58 0
1.6 0.585 0
1.6 0.59 0
1.6 0.595 0
1.6 0.6 0
1.6 0.605 0
1.6 0.61 0
1.6 0.615 0
1.6 0.62 0
1.6 0.625 0
1.6 0.63 0
1.6 0.635 0
1.6 0.64 0
1.6 0.645 0
1.6 0.65 0
1.6 0.655 0
1.6 0.66 0
1.6 0.665 0
1.6 0.67 0
1.6 0.675 0
1.6 0.68 0
1.6 0.685 0
1.6 0.69 0
1.6 0.695 0
1.6 0.7 0
1.6 0.705 0
1.6 0.71 0
1.6 0.715 0
1.6 0.72 0
1.6 0.725 0
1.6 0.73 0
1.6 0.735 0
1.6 0.74 0
1.6 0.745 0
1.6 0.75 0
1.6 0.755 0
1.6 0.76 0
1.6 0.765 0
1.6 0.77 0
1.6 0.775 0
1.6 0.78 0
1.6 0.785 0
1.6 0.79 0
1.6 0.795 0
1.6 0.8 0
1.6 0.805 0
1.6 0.81 0
1.6 0.815 0
1.6 0.82 0
1.6 0.825 0
1.6 0.83 0
1.6 0.835 0
1.6 0.84 0
1.6 0.845 0
1.6 0.85 0
1.6 0.855 0
1.6 0.86 0
1.6 0.865 0
1.6 0.87 0
1.6 0.875 0
1.6 0.88 0
1.6 0.885 0
1.6 0.89 0
1.6 0.895 0
1.6 0.9 0
1.6 0.905 0
1.6 0.91 0
1.6 0.915 0
1.6 0.92 0
1.6 0.925 0
1.6 0.93 0
1.6 0.935 0
1.6 0.94 0
1.6 0.945 0
1.6 0.95 0
1.6 0.955 0
1.6 0.96 0
1.6 0.965 0
1.6 0.97 0
1.6 0.975 0
1.6 0.98 0
1.6 0.985 0
1.6 0.99 0
1.6 0.995 0
1.6 1 0
1.62 0.505 0
1.62 0.50995 0
1.62 0.5149 0
1.62 0.51985 0
1.62 0.5248 0
1.62 0.52975 0
1.62 0.5347 0
1.62 0.53965 0
1.62 0.5446 0
1.62 0.54955 0
1.62 0.5545 0
1.62 0.55945 0
1.62 0.5644 0
1.62 0.56935 0
1.62 0.5743 0
1.62 0.57925 0
1.62 0.5842 0
1.62 0.58915 0
1.62 0.5941 0
1.62 0.59905 0
1.62 0.604 0
1.62 0.60895 0
1.62 0.6139 0
1.62 0.61885 0
1.62 0.6238 0
1.62 0.62875 0
1.62 0.6337 0
1.62 0.63865 0
1.62 0.6436 0
1.62 0.64855 0
1.62 0.6535 0
1.62 0.65845 0
1.62 0.6634 0
1.62 0.66835 0
1.62 0.6733 0
1.62 0.67825 0
1.62 0.6832 0
1.62 0.68815 0
1.62 0.6931 0
1.62 0.69805 0
1.62 0.703 0
1.62 0.70795 0
1.62 0.7129 0
1.62 0.71785 0
1.62 0.7228 0
1.62 0.72775 0
1.62 0.7327 0
1.62 0.73765 0
1.62 0.7426 0
1.62 0.74755 0
1.62 0.7525 0
1.62 0.75745 0
1.62 0.7624 0
1.62 0.76735 0
1.62 0.7723 0
1.62 0.77725 0
1.62 0.7822 0
1.62 0.78715 0
1.62 0.7921 0
1.62 0.79705 0
1.62 0.802 0
1.62 0.80695 0
1.62 0.8119 0
1.62 0.81685 0
1.62 0.8218 0
1.62 0.82675 0
1.62 0.8317 0
1.62 0.83665 0
1.62 0.8416 0
1.62 0.84655 0
1.62 0.8515 0
1.62 0.85645 0
1.62 0.8614 0
1.62 0.86635 0
1.62 0.8713 0
1.62 0.87625 0
1.62 0.8812 0
1.62 0.88615 0
1.62 0.8911 0
1.62 0.89605 0
1.62 0.901 0
1.62 0.90595 0
1.62 0.9109 0
1.62 0.91585 0
1.62 0.9208 0
1.62 0.92575 0
1.62 0.9307 0
1.62 0.93565 0
1.62 0.9406 0
1.62 0.94555 0
1.62 0.9505 0
1.62 0.95545 0
1.62 0.9604 0
1.62 0.96535 0
1.62 0.9703 0
1.62 0.97525 0
1.62 0.9802 0
1.62 0.98515 0
1.62 0.9901 0
1.62 0.99505 0
1.62 1 0
1.64 0.51 0
1.64 0.5149 0
1.64 0.5198 0
1.64 0.5247 0
1.64 0.5296 0
1.64 0.5345 0
1.64 0.5394 0
1.64 0.5443 0
1.64 0.5492 0
1.64 0.5541 0
1.64 0.559 0
1.64 0.5639 0
1.64 0.5688 0
1.64 0.5737 0
1.64 0.5786 0
1.64 0.5835 0
1.64 0.5884 0
1.64 0.5933 0
1.64 0.5982 0
1.64 0.6031 0
1.64 0.608 0
1.64 0.6129 0
1.64 0.6178 0
1.64 0.6227 0
1.64 0.6276 0
1.64 0.6325 0
1.64 0.6374 0
1.64 0.6423 0
1.64 0.6472 0
1.64 0.6521 0
1.64 0.657 0
1.64 0.6619 0
1.64 0.6668 0
1.64 0.6717 0
1.64 0.6766 0
1.64 0.6815 0
1.64 0.6864 0
1.64 0.6913 0
1.64 0.6962 0
1.64 0.7011 0
1.64 0.706 0
1.64 0.7109 0
1.64 0.7158 0
1.64 0.7207 0
1.64 0.7256 0
1.64 0.7305 0
1.64 0.7354 0
1.64 0.7403 0
1.64 0.7452 0
1.64 0.7501 0
1.64 0.755 0
1.64 0.7599 0
1.64 0.7648 0
1.64 0.7697 0
1.64 0.7746 0
1.64 0.7795 0
1.64 0.7844 0
1.64 0.7893 0
1.64 0.7942 0
1.64 0.7991 0
1.64 0.804 0
1.64 0.8089 0
1.64 0.8138 0
1.64 0.8187 0
1.64 0.8236 0
1.64 0.8285 0
1.64 0.8334 0
1.64 0.8383 0
1.64 0.8432 0
1.64 0.8481 0
1.64 0.853 0
1.64 0.8579 0
1.64 0.8628 0
1.64 0.8677 0
1.64 0.8726 0
1.64 0.8775 0
1.64 0.8824 0
1.64 0.8873 0
1.64 0.8922 0
1.64 0.8971 0
1.64 0.902 0
1.64 0.9069 0
1.64 0.9118 0
1.64 0.9167 0
1.64 0.9216 0
1.64 0.9265 0
1.64 0.9314 0
1.64 0.9363 0
1.64 0.9412 0
1.64 0.9461 0
1.64 0.951 0
1.64 0.9559 0
1.64 0.9608 0
1.64 0.9657 0
1.64 0.9706 0
1.64 0.9755 0
1.64 0.9804 0
1.64 0.9853 0
1.64 0.9902 0
1.64 0.9951 0
1.64 1 0
1.66 0.515 0
1.66 0.51985 0
1.66 0.5247 0
1.66 0.52955 0
1.66 0.5344 0
1.66 0.53925 0
1.66 0.5441 0
1.66 0.54895 0
1.66 0.5538 0
1.66 0.55865 0
1.66 0.5635 0
1.66 0.56835 0
1.66 0.5732 0
1.66 0.57805 0
1.66 0.5829 0
1.66 0.58775 0
1.66 0.5926 0
1.66 0.59745 0
1.66 0.6023 0
1.66 0.60715 0
1.66 0.612 0
1.66 0.61685 0
1.66 0.6217 0
1.66 0.62655 0
1.66 0.6314 0
1.66 0.63625 0
1.66 0.6411 0
1.66 0.64595 0
1.66 0.6508 0
1.66 0.65565 0
1.66 0.6605 0
1.66 0.66535 0
1.66 0.6702 0
1.66 0.67505 0
1.66 0.6799 0
1.66 0.68475 0
1.66 0.6896 0
1.66 0.69445 0
1.66 0.6993 0
1.66 0.70415 0
1.66 0.709 0
1.66 0.71385 0
1.66 0.7187 0
1.66 0.72355 0
1.66 0.7284 0
1.66 0.73325 0
1.66 0.7381 0
1.66 0.74295 0
1.66 0.7478 0
1.66 0.75265 0
1.66 0.7575 0
1.66 0.76235 0
1.66 0.7672 0
1.66 0.77205 0
1.66 0.7769 0
1.66 0.78175 0
1.66 0.7866 0
1.66 0.79145 0
1.66 0.7963 0
1.66 0.80115 0
1.66 0.806 0
1.66 0.81085 0
1.66 0.8157 0
1.66 0.82055 0
1.66 0.8254 0
1.66 0.83025 0
1.66 0.8351 0
1.66 0.83995 0
1.66 0.8448 0
1.66 0.84965 0
1.66 0.8545 0
1.66 0.85935 0
1.66 0.8642 0
1.66 0.86905 0
1.66 0.8739 0
1.66 0.87875 0
1.66 0.8836 0
1.66 0.88845 0
1.66 0.8933 0
1.66 0.89815 0
1.66 0.903 0
1.66 0.90785 0
1.66 0.9127 0
1.66 0.91755 0
1.66 0.9224 0
1.66 0.92725 0
1.66 0.9321 0
1.66 0.93695 0
1.66 0.9418 0
1.66 0.94665 0
1.66 0.9515 0
1.66 0.95635 0
1.66 0.9612 0
1.66 0.96605 0
1.66 0.9709 0
1.66 0.97575 0
1.66 0.9806 0
1.66 0.98545 0
1.66 0.9903 0
1.66 0.99515 0
1.66 1 0
1.68 0.52 0
1.68 0.5248 0
1.68 0.5296 0
1.68 0.5344 0
1.68 0.5392 0
1.68 0.544 0
1.68 0.5488 0
1.68 0.5536 0
1.68 0.5584 0
1.68 0.5632 0
1.68 0.568 0
1.68 0.5728 0
1.68 0.5776 0
1.68 0.5824 0
1.68 0.5872 0
1.68 0.592 0
1.68 0.5968 0
1.68 0.6016 0
1.68 0.6064 0
1.68 0.6112 0
1.68 0.616 0
1.68 0.6208 0
1.68 0.6256 0
1.68 0.6304 0
1.68 0.6352 0
1.68 0.64 0
1.68 0.6448 0
1.68 0.6496 0
1.68 0.6544 0
1.68 0.6592 0
1.68 0.664 0
1.68 0.6688 0
1.68 0.6736 0
1.68 0.6784 0
1.68 0.6832 0
1.68 0.688 0
1.68 0.6928 0
1.68 0.6976 0
1.68 0.7024 0
1.68 0.7072 0
1.68 0.712 0
1.68 0.7168 0
1.68 0.7216 0
1.68 0.7264 0
1.68 0.7312 0
1.68 0.736 0
1.68 0.7408 0
1.68 0.7456 0
1.68 0.7504 0
1.68 0.7552 0
1.68 0.76 0
1.68 0.7648 0
1.68 0.7696 0
1.68 0.7744 0
1.68 0.7792 0
1.68 0.784 0
1.68 0.7888 0
1.68 0.7936 0
1.68 0.7984 0
1.68 0.8032 0
1.68 0.808 0
1.68 0.8128 0
1.68 0.8176 0
1.68 0.8224 0
1.68 0.8272 0
1.68 0.832 0
1.68 0.8368 0
1.68 0.8416 0
1.68 0.8464 0
1.68 0.8512 0
1.68 0.856 0
1.68 0.8608 0
1.68 0.8656 0
1.68 0.8704 0
1.68 0.8752 0
1.68 0.88 0
1.68 0.8848 0
1.68 0.8896 0
1.68 0.8944 0
1.68 0.8992 0
1.68 0.904 0
1.68 0.9088 0
1.68 0.9136 0
1.68 0.9184 0
1.68 0.9232 0
1.68 0.928 0
1.68 0.9328 0
1.68 0.9376 0
1.68 0.9424 0
1.68 0.9472 0
1.68 0.952 0
1.68 0.9568 0
1.68 0.9616 0
1.68 0.9664 0
1.68 0.9712 0
1.68 0.976 0
1.68 0.9808 0
1.68 0.9856 0
1.68 0.9904 0
1.68 0.9952 0
1.68 1 0
1.7 0.525 0
1.7 0.52975 0
1.7 0.5345 0
1.7 0.53925 0
1.7 0.544 0
1.7 0.54875 0
1.7 0.5535 0
1.7 0.55825 0
1.7 0.563 0
1.7 0.56775 0
1.7 0.5725 0
1.7 0.57725 0
1.7 0.582 0
1.7 0.58675 0
1.7 0.5915 0
1.7 0.59625 0
1.7 0.601 0
1.7 0.60575 0
1.7 0.6105 0
1.7 0.61525 0
1.7 0.62 0
1.7 0.62475 0
1.7 0.6295 0
1.7 0.63425 0
1.7 0.639 0
1.7 0.64375 0
1.7 0.6485 0
1.7 0.65325 0
1.7 0.658 0
1.7 0.66275 0
1.7 0.6675 0
1.7 0.67225 0
1.7 0.677 0
1.7 0.68175 0
1.7 0.6865 0
1.7 0.69125 0
1.7 0.696 0
1.7 0.70075 0
1.7 0.7055 0
1.7 0.71025 0
1.7 0.715 0
1.7 0.71975 0
1.7 0.7245 0
1.7 0.72925 0
1.7 0.734 0
1.7 0.73875 0
1.7 0.7435 0
1.7 0.74825 0
1.7 0.753 0
1.7 0.75775 0
1.7 0.7625 0
1.7 0.76725 0
1.7 0.772 0
1.7 0.77675 0
1.7 0.7815 0
1.7 0.78625 0
1.7 0.791 0
1.7 0.79575 0
1.7 0.8005 0
1.7 0.80525 0
1.7 0.81 0
1.7 0.81475 0
1.7 0.8195 0
1.7 0.82425 0
1.7 0.829 0
1.7 0.83375 0
1.7 0.8385 0
1.7 0.84325 0
1.7 0.848 0
1.7 0.85275 0
1.7 0.8575 0
1.7 0.86225 0
1.7 0.867 0
1.7 0.87175 0
1.7 0.8765 0
1.7 0.88125 0
1.7 0.886 0
1.7 0.89075 0
1.7 0.8955 0
1.7 0.90025 0
1.7 0.905 0
1.7 0.90975 0
1.7 0.9145 0
1.7 0.91925 0
1.7 0.924 0
1.7 0.92875 0
1.7 0.9335 0
1.7 0.93825 0
1.7 0.943 0
1.7 0.94775 0
1.7 0.9525 0
1.7 0.95725 0
1.7 0.962 0
1.7 0.96675 0
1.7 0.9715 0
1.7 0.97625 0
1.7 0.981 0
1.7 0.98575 0
1.7 0.9905 0
1.7 0.99525 0
1.7 1 0
1.72 0.53 0
1.72 0.5347 0
1.72 0.5394 0
1.72 0.5441 0
1.72 0.5488 0
1.72 0.5535 0
1.72 0.5582 0
1.72 0.5629 0
1.72 0.5676 0
1.72 0.5723 0
1.72 0.577 0
1.72 0.5817 0
1.72 0.5864 0
1.72 0.5911 0
1.72 0.5958 0
1.72 0.6005 0
1.72 0.6052 0
1.72 0.6099 0
1.72 0.6146 0
1.72 0.6193 0
1.72 0.624 0
1.72 0.6287 0
1.72 0.6334 0
1.72 0.6381 0
1.72 0.6428 0
1.72 0.6475 0
1.72 0.6522 0
1.72 0.6569 0
1.72 0.6616 0
1.72 0.6663 0
1.72 0.671 0
1.72 0.6757 0
1.72 0.6804 0
1.72 0.6851 0
1.72 0.6898 0
1.72 0.6945 0
1.72 0.6992 0
1.72 0.7039 0
1.72 0.7086 0
1.72 0.7133 0
1.72 0.718 0
1.72 0.7227 0
1.72 0.7274 0
1.72 0.7321 0
1.72 0.7368 0
1.72 0.7415 0
1.72 0.7462 0
1.72 0.7509 0
1.72 0.7556 0
1.72 0.7603 0
1.72 0.765 0
1.72 0.7697 0
1.72 0.7744 0
1.72 0.7791 0
1.72 0.7838 0
1.72 0.7885 0
1.72 0.7932 0
1.72 0.7979 0
1.72 0.8026 0
1.72 0.8073 0
1.72 0.812 0
1.72 0.8167 0
1.72 0.8214 0
1.72 0.8261 0
1.72 0.8308 0
1.72 0.8355 0
1.72 0.8402 0
1.72 0.8449 0
1.72 0.8496 0
1.72 0.8543 0
1.72 0.859 0
1.72 0.8637 0
1.72 0.8684 0
1.72 0.8731 0
1.72 0.8778 0
1.72 0.8825 0
1.72 0.8872 0
1.72 0.8919 0
1.72 0.8966 0
1.72 0.9013 0
1.72 0.906 0
1.72 0.9107 0
1.72 0.9154 0
1.72 0.9201 0
1.72 0.9248 0
1.72 0.9295 0
1.72 0.9342 0
1.72 0.9389 0
1.72 0.9436 0
1.72 0.9483 0
1.72 0.953 0
1.72 0.9577 0
1.72 0.9624 0
1.72 0.9671 0
1.72 0.9718 0
1.72 0.9765 0
1.72 0.9812 0
1.72 0.9859 0
1.72 0.9906 0
1.72 0.9953 0
1.72 1 0
1.74 0.535 0
1.74 0.53965 0
1.74 0.5443 0
1.74 0.54895 0
1.74 0.5536 0
1.74 0.55825 0
1.74 0.5629 0
1.74 0.56755 0
1.74 0.5722 0
1.74 0.57685 0
1.74 0.5815 0
1.74 0.58615 0
1.74 0.5908 0
1.74 0.59545 0
1.74 0.6001 0
1.74 0.60475 0
1.74 0.6094 0
1.74 0.61405 0
1.74 0.6187 0
1.74 0.62335 0
1.74 0.628 0
1.74 0.63265 0
1.74 0.6373 0
1.74 0.64195 0
1.74 0.6466 0
1.74 0.65125 0
1.74 0.6559 0
1.74 0.66055 0
1.74 0.6652 0
1.74 0.66985 0
1.74 0.6745 0
1.74 0.67915 0
1.74 0.6838 0
1.74 0.68845 0
1.74 0.6931 0
1.74 0.69775 0
1.74 0.7024 0
1.74 0.70705 0
1.74 0.7117 0
1.74 0.71635 0
1.74 0.721 0
1.74 0.72565 0
1.74 0.7303 0
1.74 0.73495 0
1.74 0.7396 0
1.74 0.74425 0
1.74 0.7489 0
1.74 0.75355 0
1.74 0.7582 0
1.74 0.76285 0
1.74 0.7675 0
1.74 0.77215 0
1.74 0.7768 0
1.74 0.78145 0
1.74 0.7861 0
1.74 0.79075 0
1.74 0.7954 0
1.74 0.80005 0
1.74 0.8047 0
1.74 0.80935 0
1.74 0.814 0
1.74 0.81865 0
1.74 0.8233 0
1.74 0.82795 0
1.74 0.8326 0
1.74 0.83725 0
1.74 0.8419 0
1.74 0.84655 0
1.74 0.8512 0
1.74 0.85585 0
1.74 0.8605 0
1.74 0.86515 0
1.74 0.8698 0
1.74 0.87445 0
1.74 0.8791 0
1.74 0.88375 0
1.74 0.8884 0
1.74 0.89305 0
1.74 0.8977 0
1.74 0.90235 0
1.74 0.907 0
1.74 0.91165 0
1.74 0.9163 0
1.74 0.92095 0
1.74 0.9256 0
1.74 0.93025 0
1.74 0.9349 0
1.74 0.93955 0
1.74 0.9442 0
1.74 0.94885 0
1.74 0.9535 0
1.74 0.95815 0
1.74 0.9628 0
1.74 0.96745 0
1.74 0.9721 0
1.74 0.97675 0
1.74 0.9814 0
1.74 0.98605 0
1.74 0.9907 0
1.74 0.99535 0
1.74 1 0
1.76 0.54 0
1.76 0.5446 0
1.76 0.5492 0
1.76 0.5538 0
1.76 0.5584 0
1.76 0.563 0
1.76 0.5676 0
1.76 0.5722 0
1.76 0.5768 0
1.76 0.5814 0
1.76 0.586 0
1.76 0.5906 0
1.76 0.5952 0
1.76 0.5998 0
1.76 0.6044 0
1.76 0.609 0
1.76 0.6136 0
1.76 0.6182 0
1.76 0.6228 0
1.76 0.6274 0
1.76 0.632 0
1.76 0.6366 0
1.76 0.6412 0
1.76 0.6458 0
1.76 0.6504 0
1.76 0.655 0
1.76 0.6596 0
1.76 0.6642 0
1.76 0.6688 0
1.76 0.6734 0
1.76 0.678 0
1.76 0.6826 0
1.76 0.6872 0
1.76 0.6918 0
1.76 0.6964 0
1.76 0.701 0
1.76 0.7056 0
1.76 0.7102 0
1.76 0.7148 0
1.76 0.7194 0
1.76 0.724 0
1.76 0.7286 0
1.76 0.7332 0
1.76 0.7378 0
1.76 0.7424 0
1.76 0.747 0
1.76 0.7516 0
1.76 0.7562 0
1.76 0.7608 0
1.76 0.7654 0
1.76 0.77 0
1.76 0.7746 0
1.76 0.7792 0
1.76 0.7838 0
1.76 0.7884 0
1.76 0.793 0
1.76 0.7976 0
1.76 0.8022 0
1.76 0.8068 0
1.76 0.8114 0
1.76 0.816 0
1.76 0.8206 0
1.76 0.8252 0
1.76 0.8298 0
1.76 0.8344 0
1.76 0.839 0
1.76 0.8436 0
1.76 0.8482 0
1.76 0.8528 0
1.76 0.8574 0
1.76 0.862 0
1.76 0.8666 0
1.76 0.8712 0
1.76 0.8758 0
1.76 0.8804 0
1.76 0.885 0
1.76 0.8896 0
1.76 0.8942 0
1.76 0.8988 0
1.76 0.9034 0
1.76 0.908 0
1.76 0.9126 0
1.76 0.9172 0
1.76 0.9218 0
1.76 0.9264 0
1.76 0.931 0
1.76 0.9356 0
1.76 0.9402 0
1.76 0.9448 0
1.76 0.9494 0
1.76 0.954 0
1.76 0.9586 0
1.76 0.9632 0
1.76 0.9678 0
1.76 0.9724 0
1.76 0.977 0
1.76 0.9816 0
1.76 0.9862 0
1.76 0.9908 0
1.76 0.9954 0
1.76 1 0
1.78 0.545 0
1.78 0.54955 0
1.78 0.5541 0
1.78 0.55865 0
1.78 0.5632 0
1.78 0.56775 0
1.78 0.5723 0
1.78 0.57685 0
1.78 0.5814 0
1.78 0.58595 0
1.78 0.5905 0
1.78 0.59505 0
1.78 0.5996 0
1.78 0.60415 0
1.78 0.6087 0
1.78 0.61325 0
1.78 0.6178 0
1.78 0.62235 0
1.78 0.6269 0
1.78 0.63145 0
1.78 0.636 0
1.78 0.64055 0
1.78 0.6451 0
1.78 0.64965 0
1.78 0.6542 0
1.78 0.65875 0
1.78 0.6633 0
1.78 0.66785 0
1.78 0.6724 0
1.78 0.67695 0
1.78 0.6815 0
1.78 0.68605 0
1.78 0.6906 0
1.78 0.69515 0
1.78 0.6997 0
1.78 0.70425 0
1.78 0.7088 0
1.78 0.71335 0
1.78 0.7179 0
1.78 0.72245 0
1.78 0.727 0
1.78 0.73155 0
1.78 0.7361 0
1.78 0.74065 0
1.78 0.7452 0
1.78 0.74975 0
1.78 0.7543 0
1.78 0.75885 0
1.78 0.7634 0
1.78 0.76795 0
1.78 0.7725 0
1.78 0.77705 0
1.78 0.7816 0
1.78 0.78615 0
1.78 0.7907 0
1.78 0.79525 0
1.78 0.7998 0
1.78 0.80435 0
1.78 0.8089 0
1.78 0.81345 0
1.78 0.818 0
1.78 0.82255 0
1.78 0.8271 0
1.78 0.83165 0
1.78 0.8362 0
1.78 0.84075 0
1.78 0.8453 0
1.78 0.84985 0
1.78 0.8544 0
1.78 0.85895 0
1.78 0.8635 0
1.78 0.86805 0
1.78 0.8726 0
1.78 0.87715 0
1.78 0.8817 0
1.78 0.88625 0
1.78 0.8908 0
1.78 0.89535 0
1.78 0.8999 0
1.78 0.90445 0
1.78 0.909 0
1.78 0.91355 0
1.78 0.9181 0
1.78 0.92265 0
1.78 0.9272 0
1.78 0.93175 0
1.78 0.9363 0
1.78 0.94085 0
1.78 0.9454 0
1.78 0.94995 0
1.78 0.9545 0
1.78 0.95905 0
1.78 0.9636 0
1.78 0.96815 0
1.78 0.9727 0
1.78 0.97725 0
1.78 0.9818 0
1.78 0.98635 0
1.78 0.9909 0
1.78 0.99545 0
1.78 1 0
1.8 0.55 0
1.8 0.5545 0
1.8 0.559 0
1.8 0.5635 0
1.8 0.568 0
1.8 0.5725 0
1.8 0.577 0
1.8 0.5815 0
1.8 0.586 0
1.8 0.5905 0
1.8 0.595 0
1.8 0.5995 0
1.8 0.604 0
1.8 0.6085 0
1.8 0.613 0
1.8 0.6175 0
1.8 0.622 0
1.8 0.6265 0
1.8 0.631 0
1.8 0.6355 0
1.8 0.64 0
1.8 0.6445 0
1.8 0.649 0
1.8 0.6535 0
1.8 0.658 0
1.8 0.6625 0
1.8 0.667 0
1.8 0.6715 0
1.8 0.676 0
1.8 0.6805 0
1.8 0.685 0
1.8 0.6895 0
1.8 0.694 0
1.8 0.6985 0
1.8 0.703 0
1.8 0.7075 0
1.8 0.712 0
1.8 0.7165 0
1.8 0.721 0
1.8 0.7255 0
1.8 0.73 0
1.8 0.7345 0
1.8 0.739 0
1.8 0.7435 0
1.8 0.748 0
1.8 0.7525 0
1.8 0.757 0
1.8 0.7615 0
1.8 0.766 0
1.8 0.7705 0
1.8 0.775 0
1.8 0.7795 0
1.8 0.784 0
1.8 0.7885 0
1.8 0.793 0
1.8 0.7975 0
1.8 0.802 0
1.8 0.8065 0
1.8 0.811 0
1.8 0.8155 0
1.8 0.82 0
1.8 0.8245 0
1.8 0.829 0
1.8 0.8335 0
1.8 0.838 0
1.8 0.8425 0
1.8 0.847 0
1.8 0.8515 0
1.8 0.856 0
1.8 0.8605 0
1.8 0.865 0
1.8 0.8695 0
1.8 0.874 0
1.8 0.8785 0
1.8 0.883 0
1.8 0.8875 0
1.8 0.892 0
1.8 0.8965 0
1.8 0.901 0
1.8 0.9055 0
1.8 0.91 0
1.8 0.9145 0
1.8 0.919 0
1.8 0.9235 0
1.8 0.928 0
1.8 0.9325 0
1.8 0.937 0
1.8 0.9415 0
1.8 0.946 0
1.8 0.9505 0
1.8 0.955 0
1.8 0.9595 0
1.8 0.964 0
1.8 0.9685 0
1.8 0.973 0
1.8 0.9775 0
1.8 0.982 0
1.8 0.9865 0
1.8 0.991 0
1.8 0.9955 0
1.8 1 0
1.82 0.555 0
1.82 0.55945 0
1.82 0.5639 0
1.82 0.56835 0
1.82 0.5728 0
1.82 0.57725 0
1.82 0.5817 0
1.82 0.58615 0
1.82 0.5906 0
1.82 0.59505 0
1.82 0.5995 0
1.82 0.60395 0
1.82 0.6084 0
1.82 0.61285 0
1.82 0.6173 0
1.82 0.62175 0
1.82 0.6262 0
1.82 0.63065 0
1.82 0.6351 0
1.82 0.63955 0
1.82 0.644 0
1.82 0.64845 0
1.82 0.6529 0
1.82 0.65735 0
1.82 0.6618 0
1.82 0.66625 0
1.82 0.6707 0
1.82 0.67515 0
1.82 0.6796 0
1.82 0.68405 0
1.82 0.6885 0
1.82 0.69295 0
1.82 0.6974 0
1.82 0.70185 0
1.82 0.7063 0
1.82 0.71075 0
1.82 0.7152 0
1.82 0.71965 0
1.82 0.7241 0
1.82 0.72855 0
1.82 0.733 0
1.82 0.73745 0
1.82 0.7419 0
1.82 0.74635 0
1.82 0.7508 0
1.82 0.75525 0
1.82 0.7597 0
1.82 0.76415 0
1.82 0.7686 0
1.82 0.77305 0
1.82 0.7775 0
1.82 0.78195 0
1.82 0.7864 0
1.82 0.79085 0
1.82 0.7953 0
1.82 0.79975 0
1.82 0.8042 0
1.82 0.80865 0
1.82 0.8131 0
1.82 0.81755 0
1.82 0.822 0
1.82 0.82645 0
1.82 0.8309 0
1.82 0.83535 0
1.82 0.8398 0
1.82 0.84425 0
1.82 0.8487 0
1.82 0.85315 0
1.82 0.8576 0
1.82 0.86205 0
1.82 0.8665 0
1.82 0.87095 0
1.82 0.8754 0
1.82 0.87985 0
1.82 0.8843 0
1.82 0.88875 0
1.82 0.8932 0
1.82 0.89765 0
1.82 0.9021 0
1.82 0.90655 0
1.82 0.911 0
1.82 0.91545 0
1.82 0.9199 0
1.82 0.92435 0
1.82 0.9288 0
1.82 0.93325 0
1.82 0.9377 0
1.82 0.94215 0
1.82 0.9466 0
1.82 0.95105 0
1.82 0.9555 0
1.82 0.95995 0
1.82 0.9644 0
1.82 0.96885 0
1.82 0.9733 0
1.82 0.97775 0
1.82 0.9822 0
1.82 0.98665 0
1.82 0.9911 0
1.82 0.99555 0
1.82 1 0
1.84 0.56 0
1.84 0.5644 0
1.84 0.5688 0
1.84 0.5732 0
1.84 0.5776 0
1.84 0.582 0
1.84 0.5864 0
1.84 0.5908 0
1.84 0.5952 0
1.84 0.5996 0
1.84 0.604 0
1.84 0.6084 0
1.84 0.6128 0
1.84 0.6172 0
1.84 0.6216 0
1.84 0.626 0
1.84 0.6304 0
1.84 0.6348 0
1.84 0.6392 0
1.84 0.6436 0
1.84 0.648 0
1.84 0.6524 0
1.84 0.6568 0
1.84 0.6612 0
1.84 0.6656 0
1.84 0.67 0
1.84 0.6744 0
1.84 0.6788 0
1.84 0.6832 0
1.84 0.6876 0
1.84 0.692 0
1.84 0.6964 0
1.84 0.7008 0
1.84 0.7052 0
1.84 0.7096 0
1.84 0.714 0
1.84 0.7184 0
1.84 0.7228 0
1.84 0.7272 0
1.84 0.7316 0
1.84 0.736 0
1.84 0.7404 0
1.84 0.7448 0
1.84 0.7492 0
1.84 0.7536 0
1.84 0.758 0
1.84 0.7624 0
1.84 0.7668 0
1.84 0.7712 0
1.84 0.7756 0
1.84 0.78 0
1.84 0.7844 0
1.84 0.7888 0
1.84 0.7932 0
1.84 0.7976 0
1.84 0.802 0
1.84 0.8064 0
1.84 0.8108 0
1.84 0.8152 0
1.84 0.8196 0
1.84 0.824 0
1.84 0.8284 0
1.84 0.8328 0
1.84 0.8372 0
1.84 0.8416 0
1.84 0.846 0
1.84 0.8504 0
1.84 0.8548 0
1.84 0.8592 0
1.84 0.8636 0
1.84 0.868 0
1.84 0.8724 0
1.84 0.8768 0
1.84 0.8812 0
1.84 0.8856 0
1.84 0.89 0
1.84 0.8944 0
1.84 0.8988 0
1.84 0.9032 0
1.84 0.9076 0
1.84 0.912 0
1.84 0.9164 0
1.84 0.9208 0
1.84 0.9252 0
1.84 0.9296 0
1.84 0.934 0
1.84 0.9384 0
1.84 0.9428 0
1.84 0.9472 0
1.84 0.9516 0
1.84 0.956 0
1.84 0.9604 0
1.84 0.9648 0
1.84 0.9692 0
1.84 0.9736 0
1.84 0.978 0
1.84 0.9824 0
1.84 0.9868 0
1.84 0.9912 0
1.84 0.9956 0
1.84 1 0
1.86 0.565 0
1.86 0.56935 0
1.86 0.5737 0
1.86 0.57805 0
1.86 0.5824 0
1.86 0.58675 0
1.86 0.5911 0
1.86 0.59545 0
1.86 0.5998 0
1.86 0.60415 0
1.86 0.6085 0
1.86 0.61285 0
1.86 0.6172 0
1.86 0.62155 0
1.86 0.6259 0
1.86 0.63025 0
1.86 0.6346 0
1.86 0.63895 0
1.86 0.6433 0
1.86 0.64765 0
1.86 0.652 0
1.86 0.65635 0
1.86 0.6607 0
1.86 0.66505 0
1.86 0.6694 0
1.86 0.67375 0
1.86 0.6781 0
1.86 0.68245 0
1.86 0.6868 0
1.86 0.69115 0
1.86 0.6955 0
1.86 0.69985 0
1.86 0.7042 0
1.86 0.70855 0
1.86 0.7129 0
1.86 0.71725 0
1.86 0.7216 0
1.86 0.72595 0
1.86 0.7303 0
1.86 0.73465 0
1.86 0.739 0
1.86 0.74335 0
1.86 0.7477 0
1.86 0.75205 0
1.86 0.7564 0
1.86 0.76075 0
1.86 0.7651 0
1.86 0.76945 0
1.86 0.7738 0
1.86 0.77815 0
1.86 0.7825 0
1.86 0.78685 0
1.86 0.7912 0
1.86 0.79555 0
1.86 0.7999 0
1.86 0.80425 0
1.86 0.8086 0
1.86 0.81295 0
1.86 0.8173 0
1.86 0.82165 0
1.86 0.826 0
1.86 0.83035 0
1.86 0.8347 0
1.86 0.83905 0
1.86 0.8434 0
1.86 0.84775 0
1.86 0.8521 0
1.86 0.85645 0
1.86 0.8608 0
1.86 0.86515 0
1.86 0.8695 0
1.86 0.87385 0
1.86 0.8782 0
1.86 0.88255 0
1.86 0.8869 0
1.86 0.89125 0
1.86 0.8956 0
1.86 0.89995 0
1.86 0.9043 0
1.86 0.90865 0
1.86 0.913 0
1.86 0.91735 0
1.86 0.9217 0
1.86 0.92605 0
1.86 0.9304 0
1.86 0.93475 0
1.86 0.9391 0
1.86 0.94345 0
1.86 0.9478 0
1.86 0.95215 0
1.86 0.9565 0
1.86 0.96085 0
1.86 0.9652 0
1.86 0.96955 0
1.86 0.9739 0
1.86 0.97825 0
1.86 0.9826 0
1.86 0.98695 0
1.86 0.9913 0
1.86 0.99565 0
1.86 1 0
1.88 0.57 0
1.88 0.5743 0
1.88 0.5786 0
1.88 0.5829 0
1.88 0.5872 0
1.88 0.5915 0
1.88 0.5958 0
1.88 0.6001 0
1.88 0.6044 0
1.88 0.6087 0
1.88 0.613 0
1.88 0.6173 0
1.88 0.6216 0
1.88 0.6259 0
1.88 0.6302 0
1.88 0.6345 0
1.88 0.6388 0
1.88 0.6431 0
1.88 0.6474 0
1.88 0.6517 0
1.88 0.656 0
1.88 0.6603 0
1.88 0.6646 0
1.88 0.6689 0
1.88 0.6732 0
1.88 0.6775 0
1.88 0.6818 0
1.88 0.6861 0
1.88 0.6904 0
1.88 0.6947 0
1.88 0.699 0
1.88 0.7033 0
1.88 0.7076 0
1.88 0.7119 0
1.88 0.7162 0
1.88 0.7205 0
1.88 0.7248 0
1.88 0.7291 0
1.88 0.7334 0
1.88 0.7377 0
1.88 0.742 0
1.88 0.7463 0
1.88 0.7506 0
1.88 0.7549 0
1.88 0.7592 0
1.88 0.7635 0
1.88 0.7678 0
1.88 0.7721 0
1.88 0.7764 0
1.88 0.7807 0
1.88 0.785 0
1.88 0.7893 0
1.88 0.7936 0
1.88 0.7979 0
1.88 0.8022 0
1.88 0.8065 0
1.88 0.8108 0
1.88 0.8151 0
1.88 0.8194 0
1.88 0.8237 0
1.88 0.828 0
1.88 0.8323 0
1.88 0.8366 0
1.88 0.8409 0
1.88 0.8452 0
1.88 0.8495 0
1.88 0.8538 0
1.88 0.8581 0
1.88 0.8624 0
1.88 0.8667 0
1.88 0.871 0
1.88 0.8753 0
1.88 0.8796 0
1.88 0.8839 0
1.88 0.8882 0
1.88 0.8925 0
1.88 0.8968 0
1.88 0.9011 0
1.88 0.9054 0
1.88 0.9097 0
1.88 0.914 0
1.88 0.9183 0
1.88 0.9226 0
1.88 0.9269 0
1.88 0.9312 0
1.88 0.9355 0
1.88 0.9398 0
1.88 0.9441 0
1.88 0.9484 0
1.88 0.9527 0
1.88 0.957 0
1.88 0.9613 0
1.88 0.9656 0
1.88 0.9699 0
1.88 0.9742 0
1.88 0.9785 0
1.88 0.9828 0
1.88 0.9871 0
1.88 0.9914 0
1.88 0.9957 0
1.88 1 0
1.9 0.575 0
1.9 0.57925 0
1.9 0.5835 0
1.9 0.58775 0
1.9 0.592 0
1.9 0.59625 0
1.9 0.6005 0
1.9 0.60475 0
1.9 0.609 0
1.9 0.61325 0
1.9 0.6175 0
1.9 0.62175 0
1.9 0.626 0
1.9 0.63025 0
1.9 0.6345 0
1.9 0.63875 0
1.9 0.643 0
1.9 0.64725 0
1.9 0.6515 0
1.9 0.65575 0
1.9 0.66 0
1.9 0.66425 0
1.9 0.6685 0
1.9 0.67275 0
1.9 0.677 0
1.9 0.68125 0
1.9 0.6855 0
1.9 0.68975 0
1.9 0.694 0
1.9 0.69825 0
1.9 0.7025 0
1.9 0.70675 0
1.9 0.711 0
1.9 0.71525 0
1.9 0.7195 0
1.9 0.72375 0
1.9 0.728 0
1.9 0.73225 0
1.9 0.7365 0
1.9 0.74075 0
1.9 0.745 0
1.9 0.74925 0
1.9 0.7535 0
1.9 0.75775 0
1.9 0.762 0
1.9 0.76625 0
1.9 0.7705 0
1.9 0.77475 0
1.9 0.779 0
1.9 0.78325 0
1.9 0.7875 0
1.9 0.79175 0
1.9 0.796 0
1.9 0.80025 0
1.9 0.8045 0
1.9 0.80875 0
1.9 0.813 0
1.9 0.81725 0
1.9 0.8215 0
1.9 0.82575 0
1.9 0.83 0
1.9 0.83425 0
1.9 0.8385 0
1.9 0.84275 0
1.9 0.847 0
1.9 0.85125 0
1.9 0.8555 0
1.9 0.85975 0
1.9 0.864 0
1.9 0.86825 0
1.9 0.8725 0
1.9 0.87675 0
1.9 0.881 0
1.9 0.88525 0
1.9 0.8895 0
1.9 0.89375 0
1.9 0.898 0
1.9 0.90225 0
1.9 0.9065 0
1.9 0.91075 0
1.9 0.915 0
1.9 0.91925 0
1.9 0.9235 0
1.9 0.92775 0
1.9 0.932 0
1.9 0.93625 0
1.9 0.9405 0
1.9 0.94475 0
1.9 0.949 0
1.9 0.95325 0
1.9 0.9575 0
1.9 0.96175 0
1.9 0.966 0
1.9 0.97025 0
1.9 0.9745 0
1.9 0.97875 0
1.9 0.983 0
1.9 0.98725 0
1.9 0.9915 0
1.9 0.99575 0
1.9 1 0
1.92 0.58 0
1.92 0.5842 0
1.92 0.5884 0
1.92 0.5926 0
1.92 0.5968 0
1.92 0.601 0
1.92 0.6052 0
1.92 0.6094 0
1.92 0.6136 0
1.92 0.6178 0
1.92 0.622 0
1.92 0.6262 0
1.92 0.6304 0
1.92 0.6346 0
1.92 0.6388 0
1.92 0.643 0
1.92 0.6472 0
1.92 0.6514 0
1.92 0.6556 0
1.92 0.6598 0
1.92 0.664 0
1.92 0.6682 0
1.92 0.6724 0
1.92 0.6766 0
1.92 0.6808 0
1.92 0.685 0
1.92 0.6892 0
1.92 0.6934 0
1.92 0.6976 0
1.92 0.7018 0
1.92 0.706 0
1.92 0.7102 0
1.92 0.7144 0
1.92 0.7186 0
1.92 0.7228 0
1.92 0.727 0
1.92 0.7312 0
1.92 0.7354 0
1.92 0.7396 0
1.92 0.7438 0
1.92 0.748 0
1.92 0.7522 0
1.92 0.7564 0
1.92 0.7606 0
1.92 0.7648 0
1.92 0.769 0
1.92 0.7732 0
1.92 0.7774 0
1.92 0.7816 0
1.92 0.7858 0
1.92 0.79 0
1.92 0.7942 0
1.92 0.7984 0
1.92 0.8026 0
1.92 0.8068 0
1.92 0.811 0
1.92 0.8152 0
1.92 0.8194 0
1.92 0.8236 0
1.92 0.8278 0
1.92 0.832 0
1.92 0.8362 0
1.92 0.8404 0
1.92 0.8446 0
1.92 0.8488 0
1.92 0.853 0
1.92 0.8572 0
1.92 0.8614 0
1.92 0.8656 0
1.92 0.8698 0
1.92 0.874 0
1.92 0.8782 0
1.92 0.8824 0
1.92 0.8866 0
1.92 0.8908 0
1.92 0.895 0
1.92 0.8992 0
1.92 0.9034 0
1.92 0.9076 0
1.92 0.9118 0
1.92 0.916 0
1.92 0.9202 0
1.92 0.9244 0
1.92 0.9286 0
1.92 0.9328 0
1.92 0.937 0
1.92 0.9412 0
1.92 0.9454 0
1.92 0.9496 0
1.92 0.9538 0
1.92 0.958 0
1.92 0.9622 0
1.92 0.9664 0
1.92 0.9706 0
1.92 0.9748 0
1.92 0.979 0
1.92 0.9832 0
1.92 0.9874 0
1.92 0.9916 0
1.92 0.9958 0
1.92 1 0
1.94 0.585 0
1.94 0.58915 0
1.94 0.5933 0
1.94 0.59745 0
1.94 0.6016 0
1.94 0.60575 0
1.94 0.6099 0
1.94 0.61405 0
1.94 0.6182 0
1.94 0.62235 0
1.94 0.6265 0
1.94 0.63065 0
1.94 0.6348 0
1.94 0.63895 0
1.94 0.6431 0
1.94 0.64725 0
1.94 0.6514 0
1.94 0.65555 0
1.94 0.6597 0
1.94 0.66385 0
1.94 0.668 0
1.94 0.67215 0
1.94 0.6763 0
1.94 0.68045 0
1.94 0.6846 0
1.94 0.68875 0
1.94 0.6929 0
1.94 0.69705 0
1.94 0.7012 0
1.94 0.70535 0
1.94 0.7095 0
1.94 0.71365 0
1.94 0.7178 0
1.94 0.72195 0
1.94 0.7261 0
1.94 0.73025 0
1.94 0.7344 0
1.94 0.73855 0
1.94 0.7427 0
1.94 0.74685 0
1.94 0.751 0
1.94 0.75515 0
1.94 0.7593 0
1.94 0.76345 0
1.94 0.7676 0
1.94 0.77175 0
1.94 0.7759 0
1.94 0.78005 0
1.94 0.7842 0
1.94 0.78835 0
1.94 0.7925 0
1.94 0.79665 0
1.94 0.8008 0
1.94 0.80495 0
1.94 0.8091 0
1.94 0.81325 0
1.94 0.8174 0
1.94 0.82155 0
1.94 0.8257 0
1.94 0.82985 0
1.94 0.834 0
1.94 0.83815 0
1.94 0.8423 0
1.94 0.84645 0
1.94 0.8506 0
1.94 0.85475 0
1.94 0.8589 0
1.94 0.86305 0
1.94 0.8672 0
1.94 0.87135 0
1.94 0.8755 0
1.94 0.87965 0
1.94 0.8838 0
1.94 0.88795 0
1.94 0.8921 0
1.94 0.89625 0
1.94 0.9004 0
1.94 0.90455 0
1.94 0.9087 0
1.94 0.91285 0
1.94 0.917 0
1.94 0.92115 0
1.94 0.9253 0
1.94 0.92945 0
1.94 0.9336 0
1.94 0.93775 0
1.94 0.9419 0
1.94 0.94605 0
1.94 0.9502 0
1.94 0.95435 0
1.94 0.9585 0
1.94 0.96265 0
1.94 0.9668 0
1.94 0.97095 0
1.94 0.9751 0
1.94 0.97925 0
1.94 0.9834 0
1.94 0.98755 0
1.94 0.9917 0
1.94 0.99585 0
1.94 1 0
1.96 0.59 0
1.96 0.5941 0
1.96 0.5982 0
1.96 0.6023 0
1.96 0.6064 0
1.96 0.6105 0
1.96 0.6146 0
1.96 0.6187 0
1.96 0.6228 0
1.96 0.6269 0
1.96 0.631 0
1.96 0.6351 0
1.96 0.6392 0
1.96 0.6433 0
1.96 0.6474 0
1.96 0.6515 0
1.96 0.6556 0
1.96 0.6597 0
1.96 0.6638 0
1.96 0.6679 0
1.96 0.672 0
1.96 0.6761 0
1.96 0.6802 0
1.96 0.6843 0
1.96 0.6884 0
1.96 0.6925 0
1.96 0.6966 0
1.96 0.7007 0
1.96 0.7048 0
1.96 0.7089 0
1.96 0.713 0
1.96 0.7171 0
1.96 0.7212 0
1.96 0.7253 0
1.96 0.7294 0
1.96 0.7335 0
1.96 0.7376 0
1.96 0.7417 0
1.96 0.7458 0
1.96 0.7499 0
1.96 0.754 0
1.96 0.7581 0
1.96 0.7622 0
1.96 0.7663 0
1.96 0.7704 0
1.96 0.7745 0
1.96 0.7786 0
1.96 0.7827 0
1.96 0.7868 0
1.96 0.7909 0
1.96 0.795 0
1.96 0.7991 0
1.96 0.8032 0
1.96 0.8073 0
1.96 0.8114 0
1.96 0.8155 0
1.96 0.8196 0
1.96 0.8237 0
1.96 0.8278 0
1.96 0.8319 0
1.96 0.836 0
1.96 0.8401 0
1.96 0.8442 0
1.96 0.8483 0
1.96 0.8524 0
1.96 0.8565 0
1.96 0.8606 0
1.96 0.8647 0
1.96 0.8688 0
1.96 0.8729 0
1.96 0.877 0
1.96 0.8811 0
1.96 0.8852 0
1.96 0.8893 0
1.96 0.8934 0
1.96 0.8975 0
1.96 0.9016 0
1.96 0.9057 0
1.96 0.9098 0
1.96 0.9139 0
1.96 0.918 0
1.96 0.9221 0
1.96 0.9262 0
1.96 0.9303 0
1.96 0.9344 0
1.96 0.9385 0
1.96 0.9426 0
1.96 0.9467 0
1.96 0.9508 0
1.96 0.9549 0
1.96 0.959 0
1.96 0.9631 0
1.96 0.9672 0
1.96 0.9713 0
1.96 0.9754 0
1.96 0.9795 0
1.96 0.9836 0
1.96 0.9877 0
1.96 0.9918 0
1.96 0.9959 0
1.96 1 0
1.98 0.595 0
1.98 0.59905 0
1.98 0.6031 0
1.98 0.60715 0
1.98 0.6112 0
1.98 0.61525 0
1.98 0.6193 0
1.98 0.62335 0
1.98 0.6274 0
1.98 0.63145 0
1.98 0.6355 0
1.98 0.63955 0
1.98 0.6436 0
1.98 0.64765 0
1.98 0.6517 0
1.98 0.65575 0
1.98 0.6598 0
1.98 0.66385 0
1.98 0.6679 0
1.98 0.67195 0
1.98 0.676 0
1.98 0.68005 0
1.98 0.6841 0
1.98 0.68815 0
1.98 0.6922 0
1.98 0.69625 0
1.98 0.7003 0
1.98 0.70435 0
1.98 0.7084 0
1.98 0.71245 0
1.98 0.7165 0
1.98 0.72055 0
1.98 0.7246 0
1.98 0.72865 0
1.98 0.7327 0
1.98 0.73675 0
1.98 0.7408 0
1.98 0.74485 0
1.98 0.7489 0
1.98 0.75295 0
1.98 0.757 0
1.98 0.76105 0
1.98 0.7651 0
1.98 0.76915 0
1.98 0.7732 0
1.98 0.77725 0
1.98 0.7813 0
1.98 0.78535 0
1.98 0.7894 0
1.98 0.79345 0
1.98 0.7975 0
1.98 0.80155 0
1.98 0.8056 0
1.98 0.80965 0
1.98 0.8137 0
1.98 0.81775 0
1.98 0.8218 0
1.98 0.82585 0
1.98 0.8299 0
1.98 0.83395 0
1.98 0.838 0
1.98 0.84205 0
1.98 0.8461 0
1.98 0.85015 0
1.98 0.8542 0
1.98 0.85825 0
1.98 0.8623 0
1.98 0.86635 0
1.98 0.8704 0
1.98 0.87445 0
1.98 0.8785 0
1.98 0.88255 0
1.98 0.8866 0
1.98 0.89065 0
1.98 0.8947 0
1.98 0.89875 0
1.98 0.9028 0
1.98 0.90685 0
1.98 0.9109 0
1.98 0.91495 0
1.98 0.919 0
1.98 0.92305 0
1.98 0.9271 0
1.98 0.93115 0
1.98 0.9352 0
1.98 0.93925 0
1.98 0.9433 0
1.98 0.94735 0
1.98 0.9514 0
1.98 0.95545 0
1.98 0.9595 0
1.98 0.96355 0
1.98 0.9676 0
1.98 0.97165 0
1.98 0.9757 0
1.98 0.97975 0
1.98 0.9838 0
1.98 0.98785 0
1.98 0.9919 0
1.98 0.99595 0
1.98 1 0
2 0.6 0
2 0.604 0
2 0.608 0
2 0.612 0
2 0.616 0
2 0.62 0
2 0.624 0
2 0.628 0
2 0.632 0
2 0.636 0
2 0.64 0
2 0.644 0
2 0.648 0
2 0.652 0
2 0.656 0
2 0.66 0
2 0.664 0
2 0.668 0
2 0.672 0
2 0.676 0
2 0.68 0
2 0.684 0
2 0.688 0
2 0.692 0
2 0.696 0
2 0.7 0
2 0.704 0
2 0.708 0
2 0.712 0
2 0.716 0
2 0.72 0
2 0.724 0
2 0.728 0
2 0.732 0
2 0.736 0
2 0.74 0
2 0.744 0
2 0.748 0
2 0.752 0
2 0.756 0
2 0.76 0
2 0.764 0
2 0.768 0
2 0.772 0
2 0.776 0
2 0.78 0
2 0.784 0
2 0.788 0
2 0.792 0
2 0.796 0
2 0.8 0
2 0.804 0
2 0.808 0
2 0.812 0
2 0.816 0
2 0.82 0
2 0.824 0
2 0.828 0
2 0.832 0
2 0.836 0
2 0.84 0
2 0.844 0
2 0.848 0
2 0.852 0
2 0.856 0
2 0.86 0
2 0.864 0
2 0.868 0
2 0.872 0
2 0.876 0
2 0.88 0
2 0.884 0
2 0.888 0
2 0.892 0
2 0.896 0
2 0.9 0
2 0.904 0
2 0.908 0
2 0.912 0
2 0.916 0
2 0.92 0
2 0.924 0
2 0.928 0
2 0.932 0
2 0.936 0
2 0.94 0
2 0.944 0
2 0.948 0
2 0.952 0
2 0.956 0
2 0.96 0
2 0.964 0
2 0.968 0
2 0.972 0
2 0.976 0
2 0.98 0
2 0.984 0
2 0.988 0
2 0.992 0
2 0.996 0
2 1 0
CELLS 10000 50000
4 0 1 102 101
4 1 2 103 102
4 2 3 104 103
4 3 4 105 104
4 4 5 106 105
4 5 6 107 106
4 6 7 108 107
4 7 8 109 108
4 8 9 110 109
4 9 10 111 110
4 10 11 112 111
4 11 12 113 112
4 12 13 114 113
4 13 14 115 114
4 14 15 116 115
4 15 16 117 116
4 16 17 118 117
4 17 18 119 118
4 18 19 120 119
4 19 20 121 120
4 20 21 122 121
4 21 22 123 122
4 22 23 124 123
4 23 24 125 124
4 24 25 126 125
4 25 26 127 126
4 26 27 128 127
4 27 28 129 128
4 28 29 130 129
4 29 30 131 130
4 30 31 132 131
4 31 32 133 132
4 32 33 134 133
4 33 34 135 134
4 34 35 136 135
4 35 36 137 136
4 36 37 138 137
4 37 38 139 138
4 38 39 140 139
4 39 40 141 140
4 40 41 142 141
4 41 42 143 142
4 42 43 144 143
4 43 44 145 144
4 44 45 146 145
4 45 46 147 146
4 46 47 148 147
4 47 48 149 148
4 48 49 150 149
4 49 50 151 150
4 50 51 152 151
4 51 52 153 152
4 52 53 154 153
4 53 54 155 154
4 54 55 156 155
4 55 56 157 156
4 56 57 158 157
4 57 58 159 158
4 58 59 160 159
4 59 60 161 160
4 60 61 162 161
4 61 62 163 162
4 62 63 164 163
4 63 64 165 164
4 64 65 166 165
4 65 66 167 166
4 66 67 168 167
4 67 68 169 168
4 68 69 170 169
4 69 70 171 170
4 70 71 172 171
4 71 72 173 172
4 72 73 174 173
4 73 74 175 174
4 74 75 176 175
4 75 76 177 176
4 76 77 178 177
4 77 78 179 178
4 78 79 180 179
4 79 80 181 180
4 80 81 182 181
4 81 82 183 182
4 82 83 184 183
4 83 84 185 184
4 84 85 186 185
4 85 86 187 186
4 86 87 188 187
4 87 88 189 188
4 88 89 190 189
4 89 90 191 190
4 90 91 192 191
4 91 92 193 192
4 92 93 194 193
4 93 94 195 194
4 94 95 196 195
4 95 96 197 196
4 96 97 198 197
4 97 98 199 198
4 98 99 200 199
4 99 100 201 200
4 101 102 203 202
4 102 103 204 203
4 103 104 205 204
4 104 105 206 205
4 105 106 207 206
4 106 107 208 207
4 107 108 209 208
4 108 109 210 209
4 109 110 211 210
4 110 111 212 211
4 111 112 213 212
4 112 113 214 213
4 113 114 215 214
4 114 115 216 215
4 115 116 217 216
4 116 117 218 217
4 117 118 219 218
4 118 119 220 219
4 119 120 221 220
4 120 121 222 221
4 121 122 223 222
4 122 123 224 223
4 123 124 225 224
4 124 125 226 225
4 125 126 227 226
4 126 127 228 227
4 127 128 229 228
4 128 129 230 229
4 129 130 231 230
4 130 131 232 231
4 131 132 233 232
4 132 133 234 233
4 133 134 235 234
4 134 135 236 235
4 135 136 237 236
4 136 137 238 237
4 137 138 239 238
4 138 139 240 239
4 139 140 241 240
4 140 141 242 241
4 141 142 243 242
4 142 143 244 243
4 143 144 245 244
4 144 145 246 245
4 145 146 247 246
4 146 147 248 247
4 147 148 249 248
4 148 149 250 249
4 149 150 251 250
4 150 151 252 251
4 151 152 253 252
4 152 153 254 253
4 153 154 255 254
4 154 155 256 255
4 155 156 257 256
4 156 157 258 257
4 157 158 259 258
4 158 159 260 259
4 159 160 261 260
4 160 161 262 261
4 161 162 263 262
4 162 163 264 263
4 163 164 265 264
4 164 165 266 265
4 165 166 267 266
4 166 167 268 267
4 167 168 269 268
4 168 169 270 269
4 169 170 271 270
4 170 171 272 271
4 171 172 273 272
4 172 173 274 273
4 173 174 275 274
4 174 175 276 275
4 175 176 277 276
4 176 177 278 277
4 177 178 279 278
4 178 179 280 279
4 179 180 281 280
4 180 181 282 281
4 181 182 283 282
4 182 183 284 283
4 183 184 285 284
4 184 185 286 285
4 185 186 287 286
4 186 187 288 287
4 187 188 289 288
4 188 189 290 289
4 189 190 291 290
4 190 191 292 291
4 191 192 293 292
4 192 193 294 293
4 193 194 295 294
4 194 195 296 295
4 195 196 297 296
4 196 197 298 297
4 197 198 299 298
4 198 199 300 299
4 199 200 301 300
4 200 201 302 301
4 202 203 304 303
4 203 204 305 304
4 204 205 306 305
4 205 206 307 306
4 206 207 308 307
4 207 208 309 308
4 208 209 310 309
4 209 210 311 310
4 210 211 312 311
4 211 212 313 312
4 212 213 314 313
4 213 214 315 314
4 214 215 316 315
4 215 216 317 316
4 216 217 318 317
4 217 218 319 318
4 218 219 320 319
4 219 220 321 320
4 220 221 322 321
4 221 222 323 322
4 222 223 324 323
4 223 224 325 324
4 224 225 326 325
4 225 226 327 326
4 226 227 328 327
4 227 228 329 328
4 228 229 330 329
4 229 230 331 330
4 230 231 332 331
4 231 232 333 332
4 232 233 334 333
4 233 234 335 334
4 234 235 336 335
4 235 236 337 336
4 236 237 338 337
4 237 238 339 338
4 238 239 340 339
4 239 240 341 340
4 240 241 342 341
4 241 242 343 342
4 242 243 344 343
4 243 244 345 344
4 244 245 346 345
4 245 246 347 346
4 246 247 348 347
4 247 248 349 348
4 248 249 350 349
4 249 250 351 350
4 250 251 352 351
4 251 252 353 352
4 252 253 354 353
4 253 254 355 354
4 254 255 356 355
4 255 256 357 356
4 256 257 358 357
4 257 258 359 358
4 258 259 360 359
4 259 260 361 360
4 260 261 362 361
4 261 262 363 362
4 262 263 364 363
4 263 264 365 364
4 264 265 366 365
4 265 266 367 366
4 266 267 368 367
4 267 268 369 368
4 268 269 370 369
4 269 270 371 370
4 270 271 372 371
4 271 272 373 372
4 272 273 374 373
4 273 274 375 374
4 274 275 376 375
4 275 276 377 376
4 276 277 378 377
4 277 278 379 378
4 278 279 380 379
4 279 280 381 380
4 280 281 382 381
4 281 282 383 382
4 282 283 384 383
4 283 284 385 384
4 284 285 386 385
4 285 286 387 386
4 286 287 388 387
4 287 288 389 388
4 288 289 390 389
4 289 290 391 390
4 290 291 392 391
4 291 292 393 392
4 292 293 394 393
4 293 294 395 394
4 294 295 396 395
4 295 296 397 396
4 296 297 398 397
4 297 298 399 398
4 298 299 400 399
4 299 300 401 400
4 300 301 402 401
4 301 302 403 402
4 303 304 405 404
4 304 305 406 405
4 305 306 407 406
4 306 307 408 407
4 307 308 409 408
4 308 309 410 409
4 309 310 411 410
4 310 311 412 411
4 311 312 413 412
4 312 313 414 413
4 313 314 415 414
4 314 315 416 415
4 315 316 417 416
4 316 317 418 417
4 317 318 419 418
4 318 319 420 419
4 319 320 421 420
4 320 321 422 421
4 321 322 423 422
4 322 323 424 423
4 323 324 425 424
4 324 325 426 425
4 325 326 427 426
4 326 327 428 427
4 327 328 429 428
4 328 329 430 429
4 329 330 431 430
4 330 331 432 431
4 331 332 433 432
4 332 333 434 433
4 333 334 435 434
4 334 335 436 435
4 335 336 437 436
4 336 337 438 437
4 337 338 439 438
4 338 339 440 439
4 339 340 441 440
4 340 341 442 441
4 341 342 443 442
4 342 343 444 443
4 343 344 445 444
4 344 345 446 445
4 345 346 447 446
4 346 347 448 447
4 347 348 449 448
4 348 349 450 449
4 349 350 451 450
4 350 351 452 451
4 351 352 453 452
4 352 353 454 453
4 353 354 455 454
4 354 355 456 455
4 355 356 457 456
4 356 357 458 457
4 357 358 459 458
4 358 359 460 459
4 359 360 461 460
4 360 361 462 461
4 361 362 463 462
4 362 363 464 463
4 363 364 465 464
4 364 365 466 465
4 365 366 467 466
4 366 367 468 467
4 367 368 469 468
4 368 369 470 469
4 369 370 471 470
4 370 371 472 471
4 371 372 473 472
4 372 373 474 473
4 373 374 475 474
4 374 375 476 475
4 375 376 477 476
4 376 377 478 477
4 377 378 479 478
4 378 379 480 479
4 379 380 481 480
4 380 381 482 481
4 381 382 483 482
4 382 383 484 483
4 383 384 485 484
4 384 385 486 485
4 385 386 487 486
4 386 387 488 487
4 387 388 489 488
4 388 389 490 489
4 389 390 491 490
4 390 391 492 491
4 391 392 493 492
4 392 393 494 493
4 393 394 495 494
4 394 395 496 495
4 395 396 497 496
4 396 397 498 497
4 397 398 499 498
4 398 399 500 499
4 399 400 501 500
4 400 401 502 501
4 401 402 503 502
4 402 403 504 503
4 404 405 506 505
4 405 406 507 506
4 406 407 508 507
4 407 408 509 508
4 408 409 510 509
4 409 410 511 510
4 410 411 512 511
4 411 412 513 512
4 412 413 514 513
4 413 414 515 514
4 414 415 516 515
4 415 416 517 516
4 416 417 518 517
4 417 418 519 518
4 418 419 520 519
4 419 420 521 520
4 420 421 522 521
4 421 422 523 522
4 422 423 524 523
4 423 424 525 524
4 424 425 526 525
4 425 426 527 526
4 426 427 528 527
4 427 428 529 528
4 428 429 530 529
4 429 430 531 530
4 430 431 532 531
4 431 432 533 532
4 432 433 534 533
4 433 434 535 534
4 434 435 536 535
4 435 436 537 536
4 436 437 538 537
4 437 438 539 538
4 438 439 540 539
4 439 440 541 540
4 440 441 542 541
4 441 442 543 542
4 442 443 544 543
4 443 444 545 544
4 444 445 546 545
4 445 446 547 546
4 446 447 548 547
4 447 448 549 548
4 448 449 550 549
4 449 450 551 550
4 450 451 552 551
4 451 452 553 552
4 452 453 554 553
4 453 454 555 554
4 454 455 556 555
4 455 456 557 556
4 456 457 558 557
4 457 458 559 558
4 458 459 560 559
4 459 460 561 560
4 460 461 562 561
4 461 462 563 562
4 462 463 564 563
4 463 464 565 564
4 464 465 566 565
4 465 466 567 566
4 466 467 568 567
4 467 468 569 568
4 468 469 570 569
4 469 470 571 570
4 470 471 572 571
4 471 472 573 572
4 472 473 574 573
4 473 474 575 574
4 474 475 576 575
4 475 476 577 576
4 476 477 578 577
4 477 478 579 578
4 478 479 580 579
4 479 480 581 580
4 480 481 582 581
4 481 482 583 582
4 482 483 584 583
4 483 484 585 584
4 484 485 586 585
4 485 486 587 586
4 486 487 588 587
4 487 488 589 588
4 488 489 590 589
4 489 490 591 590
4 490 491 592 591
4 491 492 593 592
4 492 493 594 593
4 493 494 595 594
4 494 495 596 595
4 495 496 597 596
4 496 497 598 597
4 497 498 599 598
4 498 499 600 599
4 499 500 601 600
4 500 501 602 601
4 501 502 603 602
4 502 503 604 603
4 503 504 605 604
4 505 506 607 606
4 506 507 608 607
4 507 508 609 608
4 508 509 610 609
4 509 510 611 610
4 510 511 612 611
4 511 512 613 612
4 512 513 614 613
4 513 514 615 614
4 514 515 616 615
4 515 516 617 616
4 516 517 618 617
4 517 518 619 618
4 518 519 620 619
4 519 520 621 620
4 520 521 622 621
4 521 522 623 622
4 522 523 624 623
4 523 524 625 624
4 524 525 626 625
4 525 526 627 626
4 526 527 628 627
4 527 528 629 628
4 528 529 630 629
4 529 530 631 630
4 530 531 632 631
4 531 532 633 632
4 532 533 634 633
4 533 534 635 634
4 534 535 636 635
4 535 536 637 636
4 536 537 638 637
4 537 538 639 638
4 538 539 640 639
4 539 540 641 640
4 540 541 642 641
4 541 542 643 642
4 542 543 644 643
4 543 544 645 644
4 544 545 646 645
4 545 546 647 646
4 546 547 648 647
4 547 548 649 648
4 548 549 650 649
4 549 550 651 650
4 550 551 652 651
4 551 552 653 652
4 552 553 654 653
4 553 554 655 654
4 554 555 656 655
4 555 556 657 656
4 556 557 658 657
4 557 558 659 658
4 558 559 660 659
4 559 560 661 660
4 560 561 662 661
4 561 562 663 662
4 562 563 664 663
4 563 564 665 664
4 564 565 666 665
4 565 566 667 666
4 566 567 668 667
4 567 568 669 668
4 568 569 670 669
4 569 570 671 670
4 570 571 672 671
4 571 572 673 672
4 572 573 674 673
4 573 574 675 674
4 574 575 676 675
4 575 576 677 676
4 576 577 678 677
4 577 578 679 678
4 578 579 680 679
4 579 580 681 680
4 580 581 682 681
4 581 582 683 682
4 582 583 684 683
4 583 584 685 684
4 584 585 686 685
4 585 586 687 686
4 586 587 688 687
4 587 588 689 688
4 588 589 690 689
4 589 590 691 690
4 590 591 692 691
4 591 592 693 692
4 592 593 694 693
4 593 594 695 694
4 594 595 696 695
4 595 596 697 696
4 596 597 698 697
4 597 598 699 698
4 598 599 700 699
4 599 600 701 700
4 600 601 702 701
4 601 602 703 702
4 602 603 704 703
4 603 604 705 704
4 604 605 706 705
4 606 607 708 707
4 607 608 709 708
4 608 609 710 709
4 609 610 711 710
4 610 611 712 711
4 611 612 713 712
4 612 613 714 713
4 613 614 715 714
4 614 615 716 715
4 615 616 717 716
4 616 617 718 717
4 617 618 719 718
4 618 619 720 719
4 619 620 721 720
4 620 621 722 721
4 621 622 723 722
4 622 623 724 723
4 623 624 725 724
4 624 625 726 725
4 625 626 727 726
4 626 627 728 727
4 627 628 729 728
4 628 629 730 729
4 629 630 731 730
4 630 631 732 731
4 631 632 733 732
4 632 633 734 733
4 633 634 735 734
4 634 635 736 735
4 635 636 737 736
4 636 637 738 737
4 637 638 739 738
4 638 639 740 739
4 639 640 741 740
4 640 641 742 741
4 641 642 743 742
4 642 643 744 743
4 643 644 745 744
4 644 645 746 745
4 645 646 747 746
4 646 647 748 747
4 647 648 749 748
4 648 649 750 749
4 649 650 751 750
4 650 651 752 751
4 651 652 753 752
4 652 653 754 753
4 653 654 755 754
4 654 655 756 755
4 655 656 757 756
4 656 657 758 757
4 657 658 759 758
4 658 659 760 759
4 659 660 761 760
4 660 661 762 761
4 661 662 763 762
4 662 663 764 763
4 663 664 765 764
4 664 665 766 765
4 665 666 767 766
4 666 667 768 767
4 667 668 769 768
4 668 669 770 769
4 669 670 771 770
4 670 671 772 771
4 671 672 773 772
4 672 673 774 773
4 673 674 775 774
4 674 675 776 775
4 675 676 777 776
4 676 677 778 777
4 677 678 779 778
4 678 679 780 779
4 679 680 781 780
4 680 681 782 781
4 681 682 783 782
4 682 683 784 783
4 683 684 785 784
4 684 685 786 785
4 685 686 787 786
4 686 687 788 787
4 687 688 789 788
4 688 689 790 789
4 689 690 791 790
4 690 691 792 791
4 691 692 793 792
4 692 693 794 793
4 693 694 795 794
4 694 695 796 795
4 695 696 797 796
4 696 697 798 797
4 697 698 799 798
4 698 699 800 799
4 699 700 801 800
4 700 701 802 801
4 701 702 803 802
4 702 703 804 803
4 703 704 805 804
4 704 705 806 805
4 705 706 807 806
4 707 708 809 808
4 708 709 810 809
4 709 710 811 810
4 710 711 812 811
4 711 712 813 812
4 712 713 814 813
4 713 714 815 814
4 714 715 816 815
4 715 716 817 816
4 716 717 818 817
4 717 718 819 818
4 718 719 820 819
4 719 720 821 820
4 720 721 822 821
4 721 722 823 822
4 722 723 824 823
4 723 724 825 824
4 724 725 826 825
4 725 726 827 826
4 726 727 828 827
4 727 728 829 828
4 728 729 830 829
4 729 730 831 830
4 730 731 832 831
4 731 732 833 832
4 732 733 834 833
4 733 734 835 834
4 734 735 836 835
4 735 736 837 836
4 736 737 838 837
4 737 738 839 838
4 738 739 840 839
4 739 740 841 840
4 740 741 842 841
4 741 742 843 842
4 742 743 844 843
4 743 744 845 844
4 744 745 846 845
4 745 746 847 846
4 746 747 848 847
4 747 748 849 848
4 748 749 850 849
4 749 750 851 850
4 750 751 852 851
4 751 752 853 852
4 752 753 854 853
4 753 754 855 854
4 754 755 856 855
4 755 756 857 856
4 756 757 858 857
4 757 758 859 858
4 758 759 860 859
4 759 760 861 860
4 760 761 862 861
4 761 762 863 862
4 762 763 864 863
4 763 764 865 864
4 764 765 866 865
4 765 766 867 866
4 766 767 868 867
4 767 768 869 868
4 768 769 870 869
4 769 770 871 870
4 770 771 872 871
4 771 772 873 872
4 772 773 874 873
4 773 774 875 874
4 774 775 876 875
4 775 776 877 876
4 776 777 878 877
4 777 778 879 878
4 778 779 880 879
4 779 780 881 880
4 780 781 882 881
4 781 782 883 882
4 782 783 884 883
4 783 784 885 884
4 784 785 886 885
4 785 786 887 886
4 786 787 888 887
4 787 788 889 888
4 788 789 890 889
4 789 790 891 890
4 790 791 892 891
4 791 792 893 892
4 792 793 894 893
4 793 794 895 894
4 794 795 896 895
4 795 796 897 896
4 796 797 898 897
4 797 798 899 898
4 798 799 900 899
4 799 800 901 900
4 800 801 902 901
4 801 802 903 902
4 802 803 904 903
4 803 804 905 904
4 804 805 906 905
4 805 806 907 906
4 806 807 908 907
4 808 809 910 909
4 809 810 911 910
4 810 811 912 911
4 811 812 913 912
4 812 813 914 913
4 813 814 915 914
4 814 815 916 915
4 815 816 917 916
4 816 817 918 917
4 817 818 919 918
4 818 819 920 919
4 819 820 921 920
4 820 821 922 921
4 821 822 923 922
4 822 823 924 923
4 823 824 925 924
4 824 825 926 925
4 825 826 927 926
4 826 827 928 927
4 827 828 929 928
4 828 829 930 929
4 829 830 931 930
4 830 831 932 931
4 831 832 933 932
4 832 833 934 933
4 833 834 935 934
4 834 835 936 935
4 835 836 937 936
4 836 837 938 937
4 837 838 939 938
4 838 839 940 939
4 839 840 941 940
4 840 841 942 941
4 841 842 943 942
4 842 843 944 943
4 843 844 945 944
4 844 845 946 945
4 845 846 947 946
4 846 847 948 947
4 847 848 949 948
4 848 849 950 949
4 849 850 951 950
4 850 851 952 951
4 851 852 953 952
4 852 853 954 953
4 853 854 955 954
4 854 855 956 955
4 855 856 957 956
4 856 857 958 957
4 857 858 959 958
4 858 859 960 959
4 859 860 961 960
4 860 861 962 961
4 861 862 963 962
4 862 863 964 963
4 863 864 965 964
4 864 865 966 965
4 865 866 967 966
4 866 867 968 967
4 867 868 969 968
4 868 869 970 969
4 869 870 971 970
4 870 871 972 971
4 871 872 973 972
4 872 873 974 973
4 873 874 975 974
4 874 875 976 975
4 875 876 977 976
4 876 877 978 977
4 877 878 979 978
4 878 879 980 979
4 879 880 981 980
4 880 881 982 981
4 881 882 983 982
4 882 883 984 983
4 883 884 985 984
4 884 885 986 985
4 885 886 987 986
4 886 887 988 987
4 887 888 989 988
4 888 889 990 989
4 889 890 991 990
4 890 891 992 991
4 891 892 993 992
4 892 893 994 993
4 893 894 995 994
4 894 895 996 995
4 895 896 997 996
4 896 897 998 997
4 897 898 999 998
4 898 899 1000 999
4 899 900 1001 1000
4 900 901 1002 1001
4 901 902 1003 1002
4 902 903 1004 1003
4 903 904 1005 1004
4 904 905 1006 1005
4 905 906 1007 1006
4 906 907 1008 1007
4 907 908 1009 1008
4 909 910 1011 1010
4 910 911 1012 1011
4 911 912 1013 1012
4 912 913 1014 1013
4 913 914 1015 1014
4 914 915 1016 1015
4 915 916 1017 1016
4 916 917 1018 1017
4 917 918 1019 1018
4 918 919 1020 1019
4 919 920 1021 1020
4 920 921 1022 1021
4 921 922 1023 1022
4 922 923 1024 1023
4 923 924 1025 1024
4 924 925 1026 1025
4 925 926 1027 1026
4 926 927 1028 1027
4 927 928 1029 1028
4 928 929 1030 1029
4 929 930 1031 1030
4 930 931 1032 1031
4 931 932 1033 1032
4 932 933 1034 1033
4 933 934 1035 1034
4 934 935 1036 1035
4 935 936 1037 1036
4 936 937 1038 1037
4 937 938 1039 1038
4 938 939 1040 1039
4 939 940 1041 1040
4 940 941 1042 1041
4 941 942 1043 1042
4 942 943 1044 1043
4 943 944 1045 1044
4 944 945 1046 1045
4 945 946 1047 1046
4 946 947 1048 1047
4 947 948 1049 1048
4 948 949 1050 1049
4 949 950 1051 1050
4 950 951 1052 1051
4 951 952 1053 1052
4 952 953 1054 1053
4 953 954 1055 1054
4 954 955 1056 1055
4 955 956 1057 1056
4 956 957 1058 1057
4 957 958 1059 1058
4 958 959 1060 1059
4 959 960 1061 1060
4 960 961 1062 1061
4 961 962 1063 1062
4 962 963 1064 1063
4 963 964 1065 1064
4 964 965 1066 1065
4 965 966 1067 1066
4 966 967 1068 1067
4 967 968 1069 1068
4 968 969 1070 1069
4 969 970 1071 1070
4 970 971 1072 1071
4 971 972 1073 1072
4 972 973 1074 1073
4 973 974 1075 1074
4 974 975 1076 1075
4 975 976 1077 1076
4 976 977 1078 1077
4 977 978 1079 1078
4 978 979 1080 1079
4 979 980 1081 1080
4 980 981 1082 1081
4 981 982 1083 1082
4 982 983 1084 1083
4 983 984 1085 1084
4 984 985 1086 1085
4 985 986 1087 1086
4 986 987 1088 1087
4 987 988 1089 1088
4 988 989 1090 1089
4 989 990 1091 1090
4 990 991 1092 1091
4 991 992 1093 1092
4 992 993 1094 1093
4 993 994 1095 1094
4 994 995 1096 1095
4 995 996 1097 1096
4 996 997 1098 1097
4 997 998 1099 1098
4 998 999 1100 1099
4 999 1000 1101 1100
4 1000 1001 1102 1101
4 1001 1002 1103 1102
4 1002 1003 1104 1103
4 1003 1004 1105 1104
4 1004 1005 1106 1105
4 1005 1006 1107 1106
4 1006 1007 1108 1107
4 1007 1008 1109 1108
4 1008 1009 1110 1109
4 1010 1011 1112 1111
4 1011 1012 1113 1112
4 1012 1013 1114 1113
4 1013 1014 1115 1114
4 1014 1015 1116 1115
4 1015 1016 1117 1116
4 1016 1017 1118 1117
4 1017 1018 1119 1118
4 1018 1019 1120 1119
4 1019 1020 1121 1120
4 1020 1021 1122 1121
4 1021 1022 1123 1122
4 1022 1023 1124 1123
4 1023 1024 1125 1124
4 1024 1025 1126 1125
4 1025 1026 1127 1126
4 1026 1027 1128 1127
4 1027 1028 1129 1128
4 1028 1029 1130 1129
4 1029 1030 1131 1130
4 1030 1031 1132 1131
4 1031 1032 1133 1132
4 1032 1033 1134 1133
4 1033 1034 1135 1134
4 1034 1035 1136 1135
4 1035 1036 1137 1136
4 1036 1037 1138 1137
4 1037 1038 1139 1138
4 1038 1039 1140 1139
4 1039 1040 1141 1140
4 1040 1041 1142 1141
4 1041 1042 1143 1142
4 1042 1043 1144 1143
4 1043 1044 1145 1144
4 1044 1045 1146 1145
4 1045 1046 1147 1146
4 1046 1047 1148 1147
4 1047 1048 1149 1148
4 1048 1049 1150 1149
4 1049 1050 1151 1150
4 1050 1051 1152 1151
4 1051 1052 1153 1152
4 1052 1053 1154 1153
4 1053 1054 1155 1154
4 1054 1055 1156 1155
4 1055 1056 1157 1156
4 1056 1057 1158 1157
4 1057 1058 1159 1158
4 1058 1059 1160 1159
4 1059 1060 1161 1160
4 1060 1061 1162 1161
4 1061 1062 1163 1162
4 1062 1063 1164 1163
4 1063 1064 1165 1164
4 1064 1065 1166 1165
4 1065 1066 1167 1166
4 1066 1067 1168 1167
4 1067 1068 1169 1168
4 1068 1069 1170 1169
4 1069 1070 1171 1170
4 1070 1071 1172 1171
4 1071 1072 1173 1172
4 1072 1073 1174 1173
4 1073 1074 1175 1174
4 1074 1075 1176 1175
4 1075 1076 1177 1176
4 1076 1077 1178 1177
4 1077 1078 1179 1178
4 1078 1079 1180 1179
4 1079 1080 1181 1180
4 1080 1081 1182 1181
4 1081 1082 1183 1182
4 1082 1083 1184 1183
4 1083 1084 1185 1184
4 1084 1085 1186 1185
4 1085 1086 1187 1186
4 1086 1087 1188 1187
4 1087 1088 1189 1188
4 1088 1089 1190 1189
4 1089 1090 1191 1190
4 1090 1091 1192 1191
4 1091 1092 1193 1192
4 1092 1093 1194 1193
4 1093 1094 1195 1194
4 1094 1095 1196 1195
4 1095 1096 1197 1196
4 1096 1097 1198 1197
4 1097 1098 1199 1198
4 1098 1099 1200 1199
4 1099 1100 1201 1200
4 1100 1101 1202 1201
4 1101 1102 1203 1202
4 1102 1103 1204 1203
4 1103 1104 1205 1204
4 1104 1105 1206 1205
4 1105 1106 1207 1206
4 1106 1107 1208 1207
4 1107 1108 1209 1208
4 1108 1109 1210 1209
4 1109 1110 1211 1210
4 1111 1112 1213 1212
4 1112 1113 1214 1213
4 1113 1114 1215 1214
4 1114 1115 1216 1215
4 1115 1116 1217 1216
4 1116 1117 1218 1217
4 1117 1118 1219 1218
4 1118 1119 1220 1219
4 1119 1120 1221 1220
4 1120 1121 1222 1221
4 1121 1122 1223 1222
4 1122 1123 1224 1223
4 1123 1124 1225 1224
4 1124 1125 1226 1225
4 1125 1126 1227 1226
4 1126 1127 1228 1227
4 1127 1128 1229 1228
4 1128 1129 1230 1229
4 1129 1130 1231 1230
4 1130 1131 1232 1231
4 1131 1132 1233 1232
4 1132 1133 1234 1233
4 1133 1134 1235 1234
4 1134 1135 1236 1235
4 1135 1136 1237 1236
4 1136 1137 1238 1237
4 1137 1138 1239 1238
4 1138 1139 1240 1239
4 1139 1140 1241 1240
4 1140 1141 1242 1241
4 1141 1142 1243 1242
4 1142 1143 1244 1243
4 1143 1144 1245 1244
4 1144 1145 1246 1245
4 1145 1146 1247 1246
4 1146 1147 1248 1247
4 1147 1148 1249 1248
4 1148 1149 1250 1249
4 1149 1150 1251 1250
4 1150 1151 1252 1251
4 1151 1152 1253 1252
4 1152 1153 1254 1253
4 1153 1154 1255 1254
4 1154 1155 1256 1255
4 1155 1156 1257 1256
4 1156 1157 1258 1257
4 1157 1158 1259 1258
4 1158 1159 1260 1259
4 1159 1160 1261 1260
4 1160 1161 1262 1261
4 1161 1162 1263 1262
4 1162 1163 1264 1263
4 1163 1164 1265 1264
4 1164 1165 1266 1265
4 1165 1166 1267 1266
4 1166 1167 1268 1267
4 1167 1168 1269 1268
4 1168 1169 1270 1269
4 1169 1170 1271 1270
4 1170 1171 1272 1271
4 1171 1172 1273 1272
4 1172 1173 1274 1273
4 1173 1174 1275 1274
4 1174 1175 1276 1275
4 1175 1176 1277 1276
4 1176 1177 1278 1277
4 1177 1178 1279 1278
4 1178 1179 1280 1279
4 1179 1180 1281 1280
4 1180 1181 1282 1281
4 1181 1182 1283 1282
4 1182 1183 1284 1283
4 1183 1184 1285 1284
4 1184 1185 1286 1285
4 1185 1186 1287 1286
4 1186 1187 1288 1287
4 1187 1188 1289 1288
4 1188 1189 1290 1289
4 1189 1190 1291 1290
4 1190 1191 1292 1291
4 1191 1192 1293 1292
4 1192 1193 1294 1293
4 1193 1194 1295 1294
4 1194 1195 1296 1295
4 1195 1196 1297 1296
4 1196 1197 1298 1297
4 1197 1198 1299 1298
4 1198 1199 1300 1299
4 1199 1200 1301 1300
4 1200 1201 1302 1301
4 1201 1202 1303 1302
4 1202 1203 1304 1303
4 1203 1204 1305 1304
4 1204 1205 1306 1305
4 1205 1206 1307 1306
4 1206 1207 1308 1307
4 1207 1208 1309 1308
4 1208 1209 1310 1309
4 1209 1210 1311 1310
4 1210 1211 1312 1311
4 1212 1213 1314 1313
4 1213 1214 1315 1314
4 1214 1215 1316 1315
4 1215 1216 1317 1316
4 1216 1217 1318 1317
4 1217 1218 1319 1318
4 1218 1219 1320 1319
4 1219 1220 1321 1320
4 1220 1221 1322 1321
4 1221 1222 1323 1322
4 1222 1223 1324 1323
4 1223 1224 1325 1324
4 1224 1225 1326 1325
4 1225 1226 1327 1326
4 1226 1227 1328 1327
4 1227 1228 1329 1328
4 1228 1229 1330 1329
4 1229 1230 1331 1330
4 1230 1231 1332 1331
4 1231 1232 1333 1332
4 1232 1233 1334 1333
4 1233 1234 1335 1334
4 1234 1235 1336 1335
4 1235 1236 1337 1336
4 1236 1237 1338 1337
4 1237 1238 1339 1338
4 1238 1239 1340 1339
4 1239 1240 1341 1340
4 1240 1241 1342 1341
4 1241 1242 1343 1342
4 1242 1243 1344 1343
4 1243 1244 1345 1344
4 1244 1245 1346 1345
4 1245 1246 1347 1346
4 1246 1247 1348 1347
4 1247 1248 1349 1348
4 1248 1249 1350 1349
4 1249 1250 1351 1350
4 1250 1251 1352 1351
4 1251 1252 1353 1352
4 1252 1253 1354 1353
4 1253 1254 1355 1354
4 1254 1255 1356 1355
4 1255 1256 1357 1356
4 1256 1257 1358 1357
4 1257 1258 1359 1358
4 1258 1259 1360 1359
4 1259 1260 1361 1360
4 1260 1261 1362 1361
4 1261 1262 1363 1362
4 1262 1263 1364 1363
4 1263 1264 1365 1364
4 1264 1265 1366 1365
4 1265 1266 1367 1366
4 1266 1267 1368 1367
4 1267 1268 1369 1368
4 1268 1269 1370 1369
4 1269 1270 1371 1370
4 1270 1271 1372 1371
4 1271 1272 1373 1372
4 1272 1273 1374 1373
4 1273 1274 1375 1374
4 1274 1275 1376 1375
4 1275 1276 1377 1376
4 1276 1277 1378 1377
4 1277 1278 1379 1378
4 1278 1279 1380 1379
4 1279 1280 1381 1380
4 1280 1281 1382 1381
4 1281 1282 1383 1382
4 1282 1283 1384 1383
4 1283 1284 1385 1384
4 1284 1285 1386 1385
4 1285 1286 1387 1386
4 1286 1287 1388 1387
4 1287 1288 1389 1388
4 1288 1289 1390 1389
4 1289 1290 1391 1390
4 1290 1291 1392 1391
4 1291 1292 1393 1392
4 1292 1293 1394 1393
4 1293 1294 1395 1394
4 1294 1295 1396 1395
4 1295 1296 1397 1396
4 1296 1297 1398 1397
4 1297 1298 1399 1398
4 1298 1299 1400 1399
4 1299 1300 1401 1400
4 1300 1301 1402 1401
4 1301 1302 1403 1402
4 1302 1303 1404 1403
4 1303 1304 1405 1404
4 1304 1305 1406 1405
4 1305 1306 1407 1406
4 1306 1307 1408 1407
4 1307 1308 1409 1408
4 1308 1309 1410 1409
4 1309 1310 1411 1410
4 1310 1311 1412 1411
4 1311 1312 1413 1412
4 1313 1314 1415 1414
4 1314 1315 1416 1415
4 1315 1316 1417 1416
4 1316 1317 1418 1417
4 1317 1318 1419 1418
4 1318 1319 1420 1419
4 1319 1320 1421 1420
4 1320 1321 1422 1421
4 1321 1322 1423 1422
4 1322 1323 1424 1423
4 1323 1324 1425 1424
4 1324 1325 1426 1425
4 1325 1326 1427 1426
4 1326 1327 1428 1427
4 1327 1328 1429 1428
4 1328 1329 1430 1429
4 1329 1330 1431 1430
4 1330 1331 1432 1431
4 1331 1332 1433 1432
4 1332 1333 1434 1433
4 1333 1334 1435 1434
4 1334 1335 1436 1435
4 1335 1336 1437 1436
4 1336 1337 1438 1437
4 1337 1338 1439 1438
4 1338 1339 1440 1439
4 1339 1340 1441 1440
4 1340 1341 1442 1441
4 1341 1342 1443 1442
4 1342 1343 1444 1443
4 1343 1344 1445 1444
4 1344 1345 1446 1445
4 1345 1346 1447 1446
4 1346 1347 1448 1447
4 1347 1348 1449 1448
4 1348 1349 1450 1449
4 1349 1350 1451 1450
4 1350 1351 1452 1451
4 1351 1352 1453 1452
4 1352 1353 1454 1453
4 1353 1354 1455 1454
4 1354 1355 1456 1455
4 1355 1356 1457 1456
4 1356 1357 1458 1457
4 1357 1358 1459 1458
4 1358 1359 1460 1459
4 1359 1360 1461 1460
4 1360 1361 1462 1461
4 1361 1362 1463 1462
4 1362 1363 1464 1463
4 1363 1364 1465 1464
4 1364 1365 1466 1465
4 1365 1366 1467 1466
4 1366 1367 1468 1467
4 1367 1368 1469 1468
4 1368 1369 1470 1469
4 1369 1370 1471 1470
4 1370 1371 1472 1471
4 1371 1372 1473 1472
4 1372 1373 1474 1473
4 1373 1374 1475 1474
4 1374 1375 1476 1475
4 1375 1376 1477 1476
4 1376 1377 1478 1477
4 1377 1378 1479 1478
4 1378 1379 1480 1479
4 1379 1380 1481 1480
4 1380 1381 1482 1481
4 1381 1382 1483 1482
4 1382 1383 1484 1483
4 1383 1384 1485 1484
4 1384 1385 1486 1485
4 1385 1386 1487 1486
4 1386 1387 1488 1487
4 1387 1388 1489 1488
4 1388 1389 1490 1489
4 1389 1390 1491 1490
4 1390 1391 1492 1491
4 1391 1392 1493 1492
4 1392 1393 1494 1493
4 1393 1394 1495 1494
4 1394 1395 1496 1495
4 1395 1396 1497 1496
4 1396 1397 1498 1497
4 1397 1398 1499 1498
4 1398 1399 1500 1499
4 1399 1400 1501 1500
4 1400 1401 1502 1501
4 1401 1402 1503 1502
4 1402 1403 1504 1503
4 1403 1404 1505 1504
4 1404 1405 1506 1505
4 1405 1406 1507 1506
4 1406 1407 1508 1507
4 1407 1408 1509 1508
4 1408 1409 1510 1509
4 1409 1410 1511 1510
4 1410 1411 1512 1511
4 1411 1412 1513 1512
4 1412 1413 1514 1513
4 1414 1415 1516 1515
4 1415 1416 1517 1516
4 1416 1417 1518 1517
4 1417 1418 1519 1518
4 1418 1419 1520 1519
4 1419 1420 1521 1520
4 1420 1421 1522 1521
4 1421 1422 1523 1522
4 1422 1423 1524 1523
4 1423 1424 1525 1524
4 1424 1425 1526 1525
4 1425 1426 1527 1526
4 1426 1427 1528 1527
4 1427 1428 1529 1528
4 1428 1429 1530 1529
4 1429 1430 1531 1530
4 1430 1431 1532 1531
4 1431 1432 1533 1532
4 1432 1433 1534 1533
4 1433 1434 1535 1534
4 1434 1435 1536 1535
4 1435 1436 1537 1536
4 1436 1437 1538 1537
4 1437 1438 1539 1538
4 1438 1439 1540 1539
4 1439 1440 1541 1540
4 1440 1441 1542 1541
4 1441 1442 1543 1542
4 1442 1443 1544 1543
4 1443 1444 1545 1544
4 1444 1445 1546 1545
4 1445 1446 1547 1546
4 1446 1447 1548 1547
4 1447 1448 1549 1548
4 1448 1449 1550 1549
4 1449 1450 1551 1550
4 1450 1451 1552 1551
4 1451 1452 1553 1552
4 1452 1453 1554 1553
4 1453 1454 1555 1554
4 1454 1455 1556 1555
4 1455 1456 1557 1556
4 1456 1457 1558 1557
4 1457 1458 1559 1558
4 1458 1459 1560 1559
4 1459 1460 1561 1560
4 1460 1461 1562 1561
4 1461 1462 1563 1562
4 1462 1463 1564 1563
4 1463 1464 1565 1564
4 1464 1465 1566 1565
4 1465 1466 1567 1566
4 1466 1467 1568 1567
4 1467 1468 1569 1568
4 1468 1469 1570 1569
4 1469 1470 1571 1570
4 1470 1471 1572 1571
4 1471 1472 1573 1572
4 1472 1473 1574 1573
4 1473 1474 1575 1574
4 1474 1475 1576 1575
4 1475 1476 1577 1576
4 1476 1477 1578 1577
4 1477 1478 1579 1578
4 1478 1479 1580 1579
4 1479 1480 1581 1580
4 1480 1481 1582 1581
4 1481 1482 1583 1582
4 1482 1483 1584 1583
4 1483 1484 1585 1584
4 1484 1485 1586 1585
4 1485 1486 1587 1586
4 1486 1487 1588 1587
4 1487 1488 1589 1588
4 1488 1489 1590 1589
4 1489 1490 1591 1590
4 1490 1491 1592 1591
4 1491 1492 1593 1592
4 1492 1493 1594 1593
4 1493 1494 1595 1594
4 1494 1495 1596 1595
4 1495 1496 1597 1596
4 1496 1497 1598 1597
4 1497 1498 1599 1598
4 1498 1499 1600 1599
4 1499 1500 1601 1600
4 1500 1501 1602 1601
4 1501 1502 1603 1602
4 1502 1503 1604 1603
4 1503 1504 1605 1604
4 1504 1505 1606 1605
4 1505 1506 1607 1606
4 1506 1507 1608 1607
4 1507 1508 1609 1608
4 1508 1509 1610 1609
4 1509 1510 1611 1610
4 1510 1511 1612 1611
4 1511 1512 1613 1612
4 1512 1513 1614 1613
4 1513 1514 1615 1614
4 1515 1516 1617 1616
4 1516 1517 1618 1617
4 1517 1518 1619 1618
4 1518 1519 1620 1619
4 1519 1520 1621 1620
4 1520 1521 1622 1621
4 1521 1522 1623 1622
4 1522 1523 1624 1623
4 1523 1524 1625 1624
4 1524 1525 1626 1625
4 1525 1526 1627 1626
4 1526 1527 1628 1627
4 1527 1528 1629 1628
4 1528 1529 1630 1629
4 1529 1530 1631 1630
4 1530 1531 1632 1631
4 1531 1532 1633 1632
4 1532 1533 1634 1633
4 1533 1534 1635 1634
4 1534 1535 1636 1635
4 1535 1536 1637 1636
4 1536 1537 1638 1637
4 1537 1538 1639 1638
4 1538 1539 1640 1639
4 1539 1540 1641 1640
4 1540 1541 1642 1641
4 1541 1542 1643 1642
4 1542 1543 1644 1643
4 1543 1544 1645 1644
4 1544 1545 1646 1645
4 1545 1546 1647 1646
4 1546 1547 1648 1647
4 1547 1548 1649 1648
4 1548 1549 1650 1649
4 1549 1550 1651 1650
4 1550 1551 1652 1651
4 1551 1552 1653 1652
4 1552 1553 1654 1653
4 1553 1554 1655 1654
4 1554 1555 1656 1655
4 1555 1556 1657 1656
4 1556 1557 1658 1657
4 1557 1558 1659 1658
4 1558 1559 1660 1659
4 1559 1560 1661 1660
4 1560 1561 1662 1661
4 1561 1562 1663 1662
4 1562 1563 1664 1663
4 1563 1564 1665 1664
4 1564 1565 1666 1665
4 1565 1566 1667 1666
4 1566 1567 1668 1667
4 1567 1568 1669 1668
4 1568 1569 1670 1669
4 1569 1570 1671 1670
4 1570 1571 1672 1671
4 1571 1572 1673 1672
4 1572 1573 1674 1673
4 1573 1574 1675 1674
4 1574 1575 1676 1675
4 1575 1576 1677 1676
4 1576 1577 1678 1677
4 1577 1578 1679 1678
4 1578 1579 1680 1679
4 1579 1580 1681 1680
4 1580 1581 1682 1681
4 1581 1582 1683 1682
4 1582 1583 1684 1683
4 1583 1584 1685 1684
4 1584 1585 1686 1685
4 1585 1586 1687 1686
4 1586 1587 1688 1687
4 1587 1588 1689 1688
4 1588 1589 1690 1689
4 1589 1590 1691 1690
4 1590 1591 1692 1691
4 1591 1592 1693 1692
4 1592 1593 1694 1693
4 1593 1594 1695 1694
4 1594 1595 1696 1695
4 1595 1596 1697 1696
4 1596 1597 1698 1697
4 1597 1598 1699 1698
4 1598 1599 1700 1699
4 1599 1600 1701 1700
4 1600 1601 1702 1701
4 1601 1602 1703 1702
4 1602 1603 1704 1703
4 1603 1604 1705 1704
4 1604 1605 1706 1705
4 1605 1606 1707 1706
4 1606 1607 1708 1707
4 1607 1608 1709 1708
4 1608 1609 1710 1709
4 1609 1610 1711 1710
4 1610 1611 1712 1711
4 1611 1612 1713 1712
4 1612 1613 1714 1713
4 1613 1614 1715 1714
4 1614 1615 1716 1715
4 1616 1617 1718 1717
4 1617 1618 1719 1718
4 1618 1619 1720 1719
4 1619 1620 1721 1720
4 1620 1621 1722 1721
4 1621 1622 1723 1722
4 1622 1623 1724 1723
4 1623 1624 1725 1724
4 1624 1625 1726 1725
4 1625 1626 1727 1726
4 1626 1627 1728 1727
4 1627 1628 1729 1728
4 1628 1629 1730 1729
4 1629 1630 1731 1730
4 1630 1631 1732 1731
4 1631 1632 1733 1732
4 1632 1633 1734 1733
4 1633 1634 1735 1734
4 1634 1635 1736 1735
4 1635 1636 1737 1736
4 1636 1637 1738 1737
4 1637 1638 1739 1738
4 1638 1639 1740 1739
4 1639 1640 1741 1740
4 1640 1641 1742 1741
4 1641 1642 1743 1742
4 1642 1643 1744 1743
4 1643 1644 1745 1744
4 1644 1645 1746 1745
4 1645 1646 1747 1746
4 1646 1647 1748 1747
4 1647 1648 1749 1748
4 1648 1649 1750 1749
4 1649 1650 1751 1750
4 1650 1651 1752 1751
4 1651 1652 1753 1752
4 1652 1653 1754 1753
4 1653 1654 1755 1754
4 1654 1655 1756 1755
4 1655 1656 1757 1756
4 1656 1657 1758 1757
4 1657 1658 1759 1758
4 1658 1659 1760 1759
4 1659 1660 1761 1760
4 1660 1661 1762 1761
4 1661 1662 1763 1762
4 1662 1663 1764 1763
4 1663 1664 1765 1764
4 1664 1665 1766 1765
4 1665 1666 1767 1766
4 1666 1667 1768 1767
4 1667 1668 1769 1768
4 1668 1669 1770 1769
4 1669 1670 1771 1770
4 1670 1671 1772 1771
4 1671 1672 1773 1772
4 1672 1673 1774 1773
4 1673 1674 1775 1774
4 1674 1675 1776 1775
4 1675 1676 1777 1776
4 1676 1677 1778 1777
4 1677 1678 1779 1778
4 1678 1679 1780 1779
4 1679 1680 1781 1780
4 1680 1681 1782 1781
4 1681 1682 1783 1782
4 1682 1683 1784 1783
4 1683 1684 1785 1784
4 1684 1685 1786 1785
4 1685 1686 1787 1786
4 1686 1687 1788 1787
4 1687 1688 1789 1788
4 1688 1689 1790 1789
4 1689 1690 1791 1790
4 1690 1691 1792 1791
4 1691 1692 1793 1792
4 1692 1693 1794 1793
4 1693 1694 1795 1794
4 1694 1695 1796 1795
4 1695 1696 1797 1796
4 1696 1697 1798 1797
4 1697 1698 1799 1798
4 1698 1699 1800 1799
4 1699 1700 1801 1800
4 1700 1701 1802 1801
4 1701 1702 1803 1802
4 1702 1703 1804 1803
4 1703 1704 1805 1804
4 1704 1705 1806 1805
4 1705 1706 1807 1806
4 1706 1707 1808 1807
4 1707 1708 1809 1808
4 1708 1709 1810 1809
4 1709 1710 1811 1810
4 1710 1711 1812 1811
4 1711 1712 1813 1812
4 1712 1713 1814 1813
4 1713 1714 1815 1814
4 1714 1715 1816 1815
4 1715 1716 1817 1816
4 1717 1718 1819 1818
4 1718 1719 1820 1819
4 1719 1720 1821 1820
4 1720 1721 1822 1821
4 1721 1722 1823 1822
4 1722 1723 1824 1823
4 1723 1724 1825 1824
4 1724 1725 1826 1825
4 1725 1726 1827 1826
4 1726 1727 1828 1827
4 1727 1728 1829 1828
4 1728 1729 1830 1829
4 1729 1730 1831 1830
4 1730 1731 1832 1831
4 1731 1732 1833 1832
4 1732 1733 1834 1833
4 1733 1734 1835 1834
4 1734 1735 1836 1835
4 1735 1736 1837 1836
4 1736 1737 1838 1837
4 1737 1738 1839 1838
4 1738 1739 1840 1839
4 1739 1740 1841 1840
4 1740 1741 1842 1841
4 1741 1742 1843 1842
4 1742 1743 1844 1843
4 1743 1744 1845 1844
4 1744 1745 1846 1845
4 1745 1746 1847 1846
4 1746 1747 1848 1847
4 1747 1748 1849 1848
4 1748 1749 1850 1849
4 1749 1750 1851 1850
4 1750 1751 1852 1851
4 1751 1752 1853 1852
4 1752 1753 1854 1853
4 1753 1754 1855 1854
4 1754 1755 1856 1855
4 1755 1756 1857 1856
4 1756 1757 1858 1857
4 1757 1758 1859 1858
4 1758 1759 1860 1859
4 1759 1760 1861 1860
4 1760 1761 1862 1861
4 1761 1762 1863 1862
4 1762 1763 1864 1863
4 1763 1764 1865 1864
4 1764 1765 1866 1865
4 1765 1766 1867 1866
4 1766 1767 1868 1867
4 1767 1768 1869 1868
4 1768 1769 1870 1869
4 1769 1770 1871 1870
4 1770 1771 1872 1871
4 1771 1772 1873 1872
4 1772 1773 1874 1873
4 1773 1774 1875 1874
4 1774 1775 1876 1875
4 1775 1776 1877 1876
4 1776 1777 1878 1877
4 1777 1778 1879 1878
4 1778 1779 1880 1879
4 1779 1780 1881 1880
4 1780 1781 1882 1881
4 1781 1782 1883 1882
4 1782 1783 1884 1883
4 1783 1784 1885 1884
4 1784 1785 1886 1885
4 1785 1786 1887 1886
4 1786 1787 1888 1887
4 1787 1788 1889 1888
4 1788 1789 1890 1889
4 1789 1790 1891 1890
4 1790 1791 1892 1891
4 1791 1792 1893 1892
4 1792 1793 1894 1893
4 1793 1794 1895 1894
4 1794 1795 1896 1895
4 1795 1796 1897 1896
4 1796 1797 1898 1897
4 1797 1798 1899 1898
4 1798 1799 1900 1899
4 1799 1800 1901 1900
4 1800 1801 1902 1901
4 1801 1802 1903 1902
4 1802 1803 1904 1903
4 1803 1804 1905 1904
4 1804 1805 1906 1905
4 1805 1806 1907 1906
4 1806 1807 1908 1907
4 1807 1808 1909 1908
4 1808 1809 1910 1909
4 1809 1810 1911 1910
4 1810 1811 1912 1911
4 1811 1812 1913 1912
4 1812 1813 1914 1913
4 1813 1814 1915 1914
4 1814 1815 1916 1915
4 1815 1816 1917 1916
4 1816 1817 1918 1917
4 1818 1819 1920 1919
4 1819 1820 1921 1920
4 1820 1821 1922 1921
4 1821 1822 1923 1922
4 1822 1823 1924 1923
4 1823 1824 1925 1924
4 1824 1825 1926 1925
4 1825 1826 1927 1926
4 1826 1827 1928 1927
4 1827 1828 1929 1928
4 1828 1829 1930 1929
4 1829 1830 1931 1930
4 1830 1831 1932 1931
4 1831 1832 1933 1932
4 1832 1833 1934 1933
4 1833 1834 1935 1934
4 1834 1835 1936 1935
4 1835 1836 1937 1936
4 1836 1837 1938 1937
4 1837 1838 1939 1938
4 1838 1839 1940 1939
4 1839 1840 1941 1940
4 1840 1841 1942 1941
4 1841 1842 1943 1942
4 1842 1843 1944 1943
4 1843 1844 1945 1944
4 1844 1845 1946 1945
4 1845 1846 1947 1946
4 1846 1847 1948 1947
4 1847 1848 1949 1948
4 1848 1849 1950 1949
4 1849 1850 1951 1950
4 1850 1851 1952 1951
4 1851 1852 1953 1952
4 1852 1853 1954 1953
4 1853 1854 1955 1954
4 1854 1855 1956 1955
4 1855 1856 1957 1956
4 1856 1857 1958 1957
4 1857 1858 1959 1958
4 1858 1859 1960 1959
4 1859 1860 1961 1960
4 1860 1861 1962 1961
4 1861 1862 1963 1962
4 1862 1863 1964 1963
4 1863 1864 1965 1964
4 1864 1865 1966 1965
4 1865 1866 1967 1966
4 1866 1867 1968 1967
4 1867 1868 1969 1968
4 1868 1869 1970 1969
4 1869 1870 1971 1970
4 1870 1871 1972 1971
4 1871 1872 1973 1972
4 1872 1873 1974 1973
4 1873 1874 1975 1974
4 1874 1875 1976 1975
4 1875 1876 1977 1976
4 1876 1877 1978 1977
4 1877 1878 1979 1978
4 1878 1879 1980 1979
4 1879 1880 1981 1980
4 1880 1881 1982 1981
4 1881 1882 1983 1982
4 1882 1883 1984 1983
4 1883 1884 1985 1984
4 1884 1885 1986 1985
4 1885 1886 1987 1986
4 1886 1887 1988 1987
4 1887 1888 1989 1988
4 1888 1889 1990 1989
4 1889 1890 1991 1990
4 1890 1891 1992 1991
4 1891 1892 1993 1992
4 1892 1893 1994 1993
4 1893 1894 1995 1994
4 1894 1895 1996 1995
4 1895 1896 1997 1996
4 1896 1897 1998 1997
4 1897 1898 1999 1998
4 1898 1899 2000 1999
4 1899 1900 2001 2000
4 1900 1901 2002 2001
4 1901 1902 2003 2002
4 1902 1903 2004 2003
4 1903 1904 2005 2004
4 1904 1905 2006 2005
4 1905 1906 2007 2006
4 1906 1907 2008 2007
4 1907 1908 2009 2008
4 1908 1909 2010 2009
4 1909 1910 2011 2010
4 1910 1911 2012 2011
4 1911 1912 2013 2012
4 1912 1913 2014 2013
4 1913 1914 2015 2014
4 1914 1915 2016 2015
4 1915 1916 2017 2016
4 1916 1917 2018 2017
4 1917 1918 2019 2018
4 1919 1920 2021 2020
4 1920 1921 2022 2021
4 1921 1922 2023 2022
4 1922 1923 2024 2023
4 1923 1924 2025 2024
4 1924 1925 2026 2025
4 1925 1926 2027 2026
4 1926 1927 2028 2027
4 1927 1928 2029 2028
4 1928 1929 2030 2029
4 1929 1930 2031 2030
4 1930 1931 2032 2031
4 1931 1932 2033 2032
4 1932 1933 2034 2033
4 1933 1934 2035 2034
4 1934 1935 2036 2035
4 1935 1936 2037 2036
4 1936 1937 2038 2037
4 1937 1938 2039 2038
4 1938 1939 2040 2039
4 1939 1940 2041 2040
4 1940 1941 2042 2041
4 1941 1942 2043 2042
4 1942 1943 2044 2043
4 1943 1944 2045 2044
4 1944 1945 2046 2045
4 1945 1946 2047 2046
4 1946 1947 2048 2047
4 1947 1948 2049 2048
4 1948 1949 2050 2049
4 1949 1950 2051 2050
4 1950 1951 2052 2051
4 1951 1952 2053 2052
4 1952 1953 2054 2053
4 1953 1954 2055 2054
4 1954 1955 2056 2055
4 1955 1956 2057 2056
4 1956 1957 2058 2057
4 1957 1958 2059 2058
4 1958 1959 2060 2059
4 1959 1960 2061 2060
4 1960 1961 2062 2061
4 1961 1962 2063 2062
4 1962 1963 2064 2063
4 1963 1964 2065 2064
4 1964 1965 2066 2065
4 1965 1966 2067 2066
4 1966 1967 2068 2067
4 1967 1968 2069 2068
4 1968 1969 2070 2069
4 1969 1970 2071 2070
4 1970 1971 2072 2071
4 1971 1972 2073 2072
4 1972 1973 2074 2073
4 1973 1974 2075 2074
4 1974 1975 2076 2075
4 1975 1976 2077 2076
4 1976 1977 2078 2077
4 1977 1978 2079 2078
4 1978 1979 2080 2079
4 1979 1980 2081 2080
4 1980 1981 2082 2081
4 1981 1982 2083 2082
4 1982 1983 2084 2083
4 1983 1984 2085 2084
4 1984 1985 2086 2085
4 1985 1986 2087 2086
4 1986 1987 2088 2087
4 1987 1988 2089 2088
4 1988 1989 2090 2089
4 1989 1990 2091 2090
4 1990 1991 2092 2091
4 1991 1992 2093 2092
4 1992 1993 2094 2093
4 1993 1994 2095 2094
4 1994 1995 2096 2095
4 1995 1996 2097 2096
4 1996 1997 2098 2097
4 1997 1998 2099 2098
4 1998 1999 2100 2099
4 1999 2000 2101 2100
4 2000 2001 2102 2101
4 2001 2002 2103 2102
4 2002 2003 2104 2103
4 2003 2004 2105 2104
4 2004 2005 2106 2105
4 2005 2006 2107 2106
4 2006 2007 2108 2107
4 2007 2008 2109 2108
4 2008 2009 2110 2109
4 2009 2010 2111 2110
4 2010 2011 2112 2111
4 2011 2012 2113 2112
4 2012 2013 2114 2113
4 2013 2014 2115 2114
4 2014 2015 2116 2115
4 2015 2016 2117 2116
4 2016 2017 2118 2117
4 2017 2018 2119 2118
4 2018 2019 2120 2119
4 2020 2021 2122 2121
4 2021 2022 2123 2122
4 2022 2023 2124 2123
4 2023 2024 2125 2124
4 2024 2025 2126 2125
4 2025 2026 2127 2126
4 2026 2027 2128 2127
4 2027 2028 2129 2128
4 2028 2029 2130 2129
4 2029 2030 2131 2130
4 2030 2031 2132 2131
4 2031 2032 2133 2132
4 2032 2033 2134 2133
4 2033 2034 2135 2134
4 2034 2035 2136 2135
4 2035 2036 2137 2136
4 2036 2037 2138 2137
4 2037 2038 2139 2138
4 2038 2039 2140 2139
4 2039 2040 2141 2140
4 2040 2041 2142 2141
4 2041 2042 2143 2142
4 2042 2043 2144 2143
4 2043 2044 2145 2144
4 2044 2045 2146 2145
4 2045 2046 2147 2146
4 2046 2047 2148 2147
4 2047 2048 2149 2148
4 2048 2049 2150 2149
4 2049 2050 2151 2150
4 2050 2051 2152 2151
4 2051 2052 2153 2152
4 2052 2053 2154 2153
4 2053 2054 2155 2154
4 2054 2055 2156 2155
4 2055 2056 2157 2156
4 2056 2057 2158 2157
4 2057 2058 2159 2158
4 2058 2059 2160 2159
4 2059 2060 2161 2160
4 2060 2061 2162 2161
4 2061 2062 2163 2162
4 2062 2063 2164 2163
4 2063 2064 2165 2164
4 2064 2065 2166 2165
4 2065 2066 2167 2166
4 2066 2067 2168 2167
4 2067 2068 2169 2168
4 2068 2069 2170 2169
4 2069 2070 2171 2170
4 2070 2071 2172 2171
4 2071 2072 2173 2172
4 2072 2073 2174 2173
4 2073 2074 2175 2174
4 2074 2075 2176 2175
4 2075 2076 2177 2176
4 2076 2077 2178 2177
4 2077 2078 2179 2178
4 2078 2079 2180 2179
4 2079 2080 2181 2180
4 2080 2081 2182 2181
4 2081 2082 2183 2182
4 2082 2083 2184 2183
4 2083 2084 2185 2184
4 2084 2085 2186 2185
4 2085 2086 2187 2186
4 2086 2087 2188 2187
4 2087 2088 2189 2188
4 2088 2089 2190 2189
4 2089 2090 2191 2190
4 2090 2091 2192 2191
4 2091 2092 2193 2192
4 2092 2093 2194 2193
4 2093 2094 2195 2194
4 2094 2095 2196 2195
4 2095 2096 2197 2196
4 2096 2097 2198 2197
4 2097 2098 2199 2198
4 2098 2099 2200 2199
4 2099 2100 2201 2200
4 2100 2101 2202 2201
4 2101 2102 2203 2202
4 2102 2103 2204 2203
4 2103 2104 2205 2204
4 2104 2105 2206 2205
4 2105 2106 2207 2206
4 2106 2107 2208 2207
4 2107 2108 2209 2208
4 2108 2109 2210 2209
4 2109 2110 2211 2210
4 2110 2111 2212 2211
4 2111 2112 2213 2212
4 2112 2113 2214 2213
4 2113 2114 2215 2214
4 2114 2115 2216 2215
4 2115 2116 2217 2216
4 2116 2117 2218 2217
4 2117 2118 2219 2218
4 2118 2119 2220 2219
4 2119 2120 2221 2220
4 2121 2122 2223 2222
4 2122 2123 2224 2223
4 2123 2124 2225 2224
4 2124 2125 2226 2225
4 2125 2126 2227 2226
4 2126 2127 2228 2227
4 2127 2128 2229 2228
4 2128 2129 2230 2229
4 2129 2130 2231 2230
4 2130 2131 2232 2231
4 2131 2132 2233 2232
4 2132 2133 2234 2233
4 2133 2134 2235 2234
4 2134 2135 2236 2235
4 2135 2136 2237 2236
4 2136 2137 2238 2237
4 2137 2138 2239 2238
4 2138 2139 2240 2239
4 2139 2140 2241 2240
4 2140 2141 2242 2241
4 2141 2142 2243 2242
4 2142 2143 2244 2243
4 2143 2144 2245 2244
4 2144 2145 2246 2245
4 2145 2146 2247 2246
4 2146 2147 2248 2247
4 2147 2148 2249 2248
4 2148 2149 2250 2249
4 2149 2150 2251 2250
4 2150 2151 2252 2251
4 2151 2152 2253 2252
4 2152 2153 2254 2253
4 2153 2154 2255 2254
4 2154 2155 2256 2255
4 2155 2156 2257 2256
4 2156 2157 2258 2257
4 2157 2158 2259 2258
4 2158 2159 2260 2259
4 2159 2160 2261 2260
4 2160 2161 2262 2261
4 2161 2162 2263 2262
4 2162 2163 2264 2263
4 2163 2164 2265 2264
4 2164 2165 2266 2265
4 2165 2166 2267 2266
4 2166 2167 2268 2267
4 2167 2168 2269 2268
4 2168 2169 2270 2269
4 2169 2170 2271 2270
4 2170 2171 2272 2271
4 2171 2172 2273 2272
4 2172 2173 2274 2273
4 2173 2174 2275 2274
4 2174 2175 2276 2275
4 2175 2176 2277 2276
4 2176 2177 2278 2277
4 2177 2178 2279 2278
4 2178 2179 2280 2279
4 2179 2180 2281 2280
4 2180 2181 2282 2281
4 2181 2182 2283 2282
4 2182 2183 2284 2283
4 2183 2184 2285 2284
4 2184 2185 2286 2285
4 2185 2186 2287 2286
4 2186 2187 2288 2287
4 2187 2188 2289 2288
4 2188 2189 2290 2289
4 2189 2190 2291 2290
4 2190 2191 2292 2291
4 2191 2192 2293 2292
4 2192 2193 2294 2293
4 2193 2194 2295 2294
4 2194 2195 2296 2295
4 2195 2196 2297 2296
4 2196 2197 2298 2297
4 2197 2198 2299 2298
4 2198 2199 2300 2299
4 2199 2200 2301 2300
4 2200 2201 2302 2301
4 2201 2202 2303 2302
4 2202 2203 2304 2303
4 2203 2204 2305 2304
4 2204 2205 2306 2305
4 2205 2206 2307 2306
4 2206 2207 2308 2307
4 2207 2208 2309 2308
4 2208 2209 2310 2309
4 2209 2210 2311 2310
4 2210 2211 2312 2311
4 2211 2212 2313 2312
4 2212 2213 2314 2313
4 2213 2214 2315 2314
4 2214 2215 2316 2315
4 2215 2216 2317 2316
4 2216 2217 2318 2317
4 2217 2218 2319 2318
4 2218 2219 2320 2319
4 2219 2220 2321 2320
4 2220 2221 2322 2321
4 2222 2223 2324 2323
4 2223 2224 2325 2324
4 2224 2225 2326 2325
4 2225 2226 2327 2326
4 2226 2227 2328 2327
4 2227 2228 2329 2328
4 2228 2229 2330 2329
4 2229 2230 2331 2330
4 2230 2231 2332 2331
4 2231 2232 2333 2332
4 2232 2233 2334 2333
4 2233 2234 2335 2334
4 2234 2235 2336 2335
4 2235 2236 2337 2336
4 2236 2237 2338 2337
4 2237 2238 2339 2338
4 2238 2239 2340 2339
4 2239 2240 2341 2340
4 2240 2241 2342 2341
4 2241 2242 2343 2342
4 2242 2243 2344 2343
4 2243 2244 2345 2344
4 2244 2245 2346 2345
4 2245 2246 2347 2346
4 2246 2247 2348 2347
4 2247 2248 2349 2348
4 2248 2249 2350 2349
4 2249 2250 2351 2350
4 2250 2251 2352 2351
4 2251 2252 2353 2352
4 2252 2253 2354 2353
4 2253 2254 2355 2354
4 2254 2255 2356 2355
4 2255 2256 2357 2356
4 2256 2257 2358 2357
4 2257 2258 2359 2358
4 2258 2259 2360 2359
4 2259 2260 2361 2360
4 2260 2261 2362 2361
4 2261 2262 2363 2362
4 2262 2263 2364 2363
4 2263 2264 2365 2364
4 2264 2265 2366 2365
4 2265 2266 2367 2366
4 2266 2267 2368 2367
4 2267 2268 2369 2368
4 2268 2269 2370 2369
4 2269 2270 2371 2370
4 2270 2271 2372 2371
4 2271 2272 2373 2372
4 2272 2273 2374 2373
4 2273 2274 2375 2374
4 2274 2275 2376 2375
4 2275 2276 2377 2376
4 2276 2277 2378 2377
4 2277 2278 2379 2378
4 2278 2279 2380 2379
4 2279 2280 2381 2380
4 2280 2281 2382 2381
4 2281 2282 2383 2382
4 2282 2283 2384 2383
4 2283 2284 2385 2384
4 2284 2285 2386 2385
4 2285 2286 2387 2386
4 2286 2287 2388 2387
4 2287 2288 2389 2388
4 2288 2289 2390 2389
4 2289 2290 2391 2390
4 2290 2291 2392 2391
4 2291 2292 2393 2392
4 2292 2293 2394 2393
4 2293 2294 2395 2394
4 2294 2295 2396 2395
4 2295 2296 2397 2396
4 2296 2297 2398 2397
4 2297 2298 2399 2398
4 2298 2299 2400 2399
4 2299 2300 2401 2400
4 2300 2301 2402 2401
4 2301 2302 2403 2402
4 2302 2303 2404 2403
4 2303 2304 2405 2404
4 2304 2305 2406 2405
4 2305 2306 2407 2406
4 2306 2307 2408 2407
4 2307 2308 2409 2408
4 2308 2309 2410 2409
4 2309 2310 2411 2410
4 2310 2311 2412 2411
4 2311 2312 2413 2412
4 2312 2313 2414 2413
4 2313 2314 2415 2414
4 2314 2315 2416 2415
4 2315 2316 2417 2416
4 2316 2317 2418 2417
4 2317 2318 2419 2418
4 2318 2319 2420 2419
4 2319 2320 2421 2420
4 2320 2321 2422 2421
4 2321 2322 2423 2422
4 2323 2324 2425 2424
4 2324 2325 2426 2425
4 2325 2326 2427 2426
4 2326 2327 2428 2427
4 2327 2328 2429 2428
4 2328 2329 2430 2429
4 2329 2330 2431 2430
4 2330 2331 2432 2431
4 2331 2332 2433 2432
4 2332 2333 2434 2433
4 2333 2334 2435 2434
4 2334 2335 2436 2435
4 2335 2336 2437 2436
4 2336 2337 2438 2437
4 2337 2338 2439 2438
4 2338 2339 2440 2439
4 2339 2340 2441 2440
4 2340 2341 2442 2441
4 2341 2342 2443 2442
4 2342 2343 2444 2443
4 2343 2344 2445 2444
4 2344 2345 2446 2445
4 2345 2346 2447 2446
4 2346 2347 2448 2447
4 2347 2348 2449 2448
4 2348 2349 2450 2449
4 2349 2350 2451 2450
4 2350 2351 2452 2451
4 2351 2352 2453 2452
4 2352 2353 2454 2453
4 2353 2354 2455 2454
4 2354 2355 2456 2455
4 2355 2356 2457 2456
4 2356 2357 2458 2457
4 2357 2358 2459 2458
4 2358 2359 2460 2459
4 2359 2360 2461 2460
4 2360 2361 2462 2461
4 2361 2362 2463 2462
4 2362 2363 2464 2463
4 2363 2364 2465 2464
4 2364 2365 2466 2465
4 2365 2366 2467 2466
4 2366 2367 2468 2467
4 2367 2368 2469 2468
4 2368 2369 2470 2469
4 2369 2370 2471 2470
4 2370 2371 2472 2471
4 2371 2372 2473 2472
4 2372 2373 2474 2473
4 2373 2374 2475 2474
4 2374 2375 2476 2475
4 2375 2376 2477 2476
4 2376 2377 2478 2477
4 2377 2378 2479 2478
4 2378 2379 2480 2479
4 2379 2380 2481 2480
4 2380 2381 2482 2481
4 2381 2382 2483 2482
4 2382 2383 2484 2483
4 2383 2384 2485 2484
4 2384 2385 2486 2485
4 2385 2386 2487 2486
4 2386 2387 2488 2487
4 2387 2388 2489 2488
4 2388 2389 2490 2489
4 2389 2390 2491 2490
4 2390 2391 2492 2491
4 2391 2392 2493 2492
4 2392 2393 2494 2493
4 2393 2394 2495 2494
4 2394 2395 2496 2495
4 2395 2396 2497 2496
4 2396 2397 2498 2497
4 2397 2398 2499 2498
4 2398 2399 2500 2499
4 2399 2400 2501 2500
4 2400 2401 2502 2501
4 2401 2402 2503 2502
4 2402 2403 2504 2503
4 2403 2404 2505 2504
4 2404 2405 2506 2505
4 2405 2406 2507 2506
4 2406 2407 2508 2507
4 2407 2408 2509 2508
4 2408 2409 2510 2509
4 2409 2410 2511 2510
4 2410 2411 2512 2511
4 2411 2412 2513 2512
4 2412 2413 2514 2513
4 2413 2414 2515 2514
4 2414 2415 2516 2515
4 2415 2416 2517 2516
4 2416 2417 2518 2517
4 2417 2418 2519 2518
4 2418 2419 2520 2519
4 2419 2420 2521 2520
4 2420 2421 2522 2521
4 2421 2422 2523 2522
4 2422 2423 2524 2523
4 2424 2425 2526 2525
4 2425 2426 2527 2526
4 2426 2427 2528 2527
4 2427 2428 2529 2528
4 2428 2429 2530 2529
4 2429 2430 2531 2530
4 2430 2431 2532 2531
4 2431 2432 2533 2532
4 2432 2433 2534 2533
4 2433 2434 2535 2534
4 2434 2435 2536 2535
4 2435 2436 2537 2536
4 2436 2437 2538 2537
4 2437 2438 2539 2538
4 2438 2439 2540 2539
4 2439 2440 2541 2540
4 2440 2441 2542 2541
4 2441 2442 2543 2542
4 2442 2443 2544 2543
4 2443 2444 2545 2544
4 2444 2445 2546 2545
4 2445 2446 2547 2546
4 2446 2447 2548 2547
4 2447 2448 2549 2548
4 2448 2449 2550 2549
4 2449 2450 2551 2550
4 2450 2451 2552 2551
4 2451 2452 2553 2552
4 2452 2453 2554 2553
4 2453 2454 2555 2554
4 2454 2455 2556 2555
4 2455 2456 2557 2556
4 2456 2457 2558 2557
4 2457 2458 2559 2558
4 2458 2459 2560 2559
4 2459 2460 2561 2560
4 2460 2461 2562 2561
4 2461 2462 2563 2562
4 2462 2463 2564 2563
4 2463 2464 2565 2564
4 2464 2465 2566 2565
4 2465 2466 2567 2566
4 2466 2467 2568 2567
4 2467 2468 2569 2568
4 2468 2469 2570 2569
4 2469 2470 2571 2570
4 2470 2471 2572 2571
4 2471 2472 2573 2572
4 2472 2473 2574 2573
4 2473 2474 2575 2574
4 2474 2475 2576 2575
4 2475 2476 2577 2576
4 2476 2477 2578 2577
4 2477 2478 2579 2578
4 2478 2479 2580 2579
4 2479 2480 2581 2580
4 2480 2481 2582 2581
4 2481 2482 2583 2582
4 2482 2483 2584 2583
4 2483 2484 2585 2584
4 2484 2485 2586 2585
4 2485 2486 2587 2586
4 2486 2487 2588 2587
4 2487 2488 2589 2588
4 2488 2489 2590 2589
4 2489 2490 2591 2590
4 2490 2491 2592 2591
4 2491 2492 2593 2592
4 2492 2493 2594 2593
4 2493 2494 2595 2594
4 2494 2495 2596 2595
4 2495 2496 2597 2596
4 2496 2497 2598 2597
4 2497 2498 2599 2598
4 2498 2499 2600 2599
4 2499 2500 2601 2600
4 2500 2501 2602 2601
4 2501 2502 2603 2602
4 2502 2503 2604 2603
4 2503 2504 2605 2604
4 2504 2505 2606 2605
4 2505 2506 2607 2606
4 2506 2507 2608 2607
4 2507 2508 2609 2608
4 2508 2509 2610 2609
4 2509 2510 2611 2610
4 2510 2511 2612 2611
4 2511 2512 2613 2612
4 2512 2513 2614 2613
4 2513 2514 2615 2614
4 2514 2515 2616 2615
4 2515 2516 2617 2616
4 2516 2517 2618 2617
4 2517 2518 2619 2618
4 2518 2519 2620 2619
4 2519 2520 2621 2620
4 2520 2521 2622 2621
4 2521 2522 2623 2622
4 2522 2523 2624 2623
4 2523 2524 2625 2624
4 2525 2526 2627 2626
4 2526 2527 2628 2627
4 2527 2528 2629 2628
4 2528 2529 2630 2629
4 2529 2530 2631 2630
4 2530 2531 2632 2631
4 2531 2532 2633 2632
4 2532 2533 2634 2633
4 2533 2534 2635 2634
4 2534 2535 2636 2635
4 2535 2536 2637 2636
4 2536 2537 2638 2637
4 2537 2538 2639 2638
4 2538 2539 2640 2639
4 2539 2540 2641 2640
4 2540 2541 2642 2641
4 2541 2542 2643 2642
4 2542 2543 2644 2643
4 2543 2544 2645 2644
4 2544 2545 2646 2645
4 2545 2546 2647 2646
4 2546 2547 2648 2647
4 2547 2548 2649 2648
4 2548 2549 2650 2649
4 2549 2550 2651 2650
4 2550 2551 2652 2651
4 2551 2552 2653 2652
4 2552 2553 2654 2653
4 2553 2554 2655 2654
4 2554 2555 2656 2655
4 2555 2556 2657 2656
4 2556 2557 2658 2657
4 2557 2558 2659 2658
4 2558 2559 2660 2659
4 2559 2560 2661 2660
4 2560 2561 2662 2661
4 2561 2562 2663 2662
4 2562 2563 2664 2663
4 2563 2564 2665 2664
4 2564 2565 2666 2665
4 2565 2566 2667 2666
4 2566 2567 2668 2667
4 2567 2568 2669 2668
4 2568 2569 2670 2669
4 2569 2570 2671 2670
4 2570 2571 2672 2671
4 2571 2572 2673 2672
4 2572 2573 2674 2673
4 2573 2574 2675 2674
4 2574 2575 2676 2675
4 2575 2576 2677 2676
4 2576 2577 2678 2677
4 2577 2578 2679 2678
4 2578 2579 2680 2679
4 2579 2580 2681 2680
4 2580 2581 2682 2681
4 2581 2582 2683 2682
4 2582 2583 2684 2683
4 2583 2584 2685 2684
4 2584 2585 2686 2685
4 2585 2586 2687 2686
4 2586 2587 2688 2687
4 2587 2588 2689 2688
4 2588 2589 2690 2689
4 2589 2590 2691 2690
4 2590 2591 2692 2691
4 2591 2592 2693 2692
4 2592 2593 2694 2693
4 2593 2594 2695 2694
4 2594 2595 2696 2695
4 2595 2596 2697 2696
4 2596 2597 2698 2697
4 2597 2598 2699 2698
4 2598 2599 2700 2699
4 2599 2600 2701 2700
4 2600 2601 2702 2701
4 2601 2602 2703 2702
4 2602 2603 2704 2703
4 2603 2604 2705 2704
4 2604 2605 2706 2705
4 2605 2606 2707 2706
4 2606 2607 2708 2707
4 2607 2608 2709 2708
4 2608 2609 2710 2709
4 2609 2610 2711 2710
4 2610 2611 2712 2711
4 2611 2612 2713 2712
4 2612 2613 2714 2713
4 2613 2614 2715 2714
4 2614 2615 2716 2715
4 2615 2616 2717 2716
4 2616 2617 2718 2717
4 2617 2618 2719 2718
4 2618 2619 2720 2719
4 2619 2620 2721 2720
4 2620 2621 2722 2721
4 2621 2622 2723 2722
4 2622 2623 2724 2723
4 2623 2624 2725 2724
4 2624 2625 2726 2725
4 2626 2627 2728 2727
4 2627 2628 2729 2728
4 2628 2629 2730 2729
4 2629 2630 2731 2730
4 2630 2631 2732 2731
4 2631 2632 2733 2732
4 2632 2633 2734 2733
4 2633 2634 2735 2734
4 2634 2635 2736 2735
4 2635 2636 2737 2736
4 2636 2637 2738 2737
4 2637 2638 2739 2738
4 2638 2639 2740 2739
4 2639 2640 2741 2740
4 2640 2641 2742 2741
4 2641 2642 2743 2742
4 2642 2643 2744 2743
4 2643 2644 2745 2744
4 2644 2645 2746 2745
4 2645 2646 2747 2746
4 2646 2647 2748 2747
4 2647 2648 2749 2748
4 2648 2649 2750 2749
4 2649 2650 2751 2750
4 2650 2651 2752 2751
4 2651 2652 2753 2752
4 2652 2653 2754 2753
4 2653 2654 2755 2754
4 2654 2655 2756 2755
4 2655 2656 2757 2756
4 2656 2657 2758 2757
4 2657 2658 2759 2758
4 2658 2659 2760 2759
4 2659 2660 2761 2760
4 2660 2661 2762 2761
4 2661 2662 2763 2762
4 2662 2663 2764 2763
4 2663 2664 2765 2764
4 2664 2665 2766 2765
4 2665 2666 2767 2766
4 2666 2667 2768 2767
4 2667 2668 2769 2768
4 2668 2669 2770 2769
4 2669 2670 2771 2770
4 2670 2671 2772 2771
4 2671 2672 2773 2772
4 2672 2673 2774 2773
4 2673 2674 2775 2774
4 2674 2675 2776 2775
4 2675 2676 2777 2776
4 2676 2677 2778 2777
4 2677 2678 2779 2778
4 2678 2679 2780 2779
4 2679 2680 2781 2780
4 2680 2681 2782 2781
4 2681 2682 2783 2782
4 2682 2683 2784 2783
4 2683 2684 2785 2784
4 2684 2685 2786 2785
4 2685 2686 2787 2786
4 2686 2687 2788 2787
4 2687 2688 2789 2788
4 2688 2689 2790 2789
4 2689 2690 2791 2790
4 2690 2691 2792 2791
4 2691 2692 2793 2792
4 2692 2693 2794 2793
4 2693 2694 2795 2794
4 2694 2695 2796 2795
4 2695 2696 2797 2796
4 2696 2697 2798 2797
4 2697 2698 2799 2798
4 2698 2699 2800 2799
4 2699 2700 2801 2800
4 2700 2701 2802 2801
4 2701 2702 2803 2802
4 2702 2703 2804 2803
4 2703 2704 2805 2804
4 2704 2705 2806 2805
4 2705 2706 2807 2806
4 2706 2707 2808 2807
4 2707 2708 2809 2808
4 2708 2709 2810 2809
4 2709 2710 2811 2810
4 2710 2711 2812 2811
4 2711 2712 2813 2812
4 2712 2713 2814 2813
4 2713 2714 2815 2814
4 2714 2715 2816 2815
4 2715 2716 2817 2816
4 2716 2717 2818 2817
4 2717 2718 2819 2818
4 2718 2719 2820 2819
4 2719 2720 2821 2820
4 2720 2721 2822 2821
4 2721 2722 2823 2822
4 2722 2723 2824 2823
4 2723 2724 2825 2824
4 2724 2725 2826 2825
4 2725 2726 2827 2826
4 2727 2728 2829 2828
4 2728 2729 2830 2829
4 2729 2730 2831 2830
4 2730 2731 2832 2831
4 2731 2732 2833 2832
4 2732 2733 2834 2833
4 2733 2734 2835 2834
4 2734 2735 2836 2835
4 2735 2736 2837 2836
4 2736 2737 2838 2837
4 2737 2738 2839 2838
4 2738 2739 2840 2839
4 2739 2740 2841 2840
4 2740 2741 2842 2841
4 2741 2742 2843 2842
4 2742 2743 2844 2843
4 2743 2744 2845 2844
4 2744 2745 2846 2845
4 2745 2746 2847 2846
4 2746 2747 2848 2847
4 2747 2748 2849 2848
4 2748 2749 2850 2849
4 2749 2750 2851 2850
4 2750 2751 2852 2851
4 2751 2752 2853 2852
4 2752 2753 2854 2853
4 2753 2754 2855 2854
4 2754 2755 2856 2855
4 2755 2756 2857 2856
4 2756 2757 2858 2857
4 2757 2758 2859 2858
4 2758 2759 2860 2859
4 2759 2760 2861 2860
4 2760 2761 2862 2861
4 2761 2762 2863 2862
4 2762 2763 2864 2863
4 2763 2764 2865 2864
4 2764 2765 2866 2865
4 2765 2766 2867 2866
4 2766 2767 2868 2867
4 2767 2768 2869 2868
4 2768 2769 2870 2869
4 2769 2770 2871 2870
4 2770 2771 2872 2871
4 2771 2772 2873 2872
4 2772 2773 2874 2873
4 2773 2774 2875 2874
4 2774 2775 2876 2875
4 2775 2776 2877 2876
4 2776 2777 2878 2877
4 2777 2778 2879 2878
4 2778 2779 2880 2879
4 2779 2780 2881 2880
4 2780 2781 2882 2881
4 2781 2782 2883 2882
4 2782 2783 2884 2883
4 2783 2784 2885 2884
4 2784 2785 2886 2885
4 2785 2786 2887 2886
4 2786 2787 2888 2887
4 2787 2788 2889 2888
4 2788 2789 2890 2889
4 2789 2790 2891 2890
4 2790 2791 2892 2891
4 2791 2792 2893 2892
4 2792 2793 2894 2893
4 2793 2794 2895 2894
4 2794 2795 2896 2895
4 2795 2796 2897 2896
4 2796 2797 2898 2897
4 2797 2798 2899 2898
4 2798 2799 2900 2899
4 2799 2800 2901 2900
4 2800 2801 2902 2901
4 2801 2802 2903 2902
4 2802 2803 2904 2903
4 2803 2804 2905 2904
4 2804 2805 2906 2905
4 2805 2806 2907 2906
4 2806 2807 2908 2907
4 2807 2808 2909 2908
4 2808 2809 2910 2909
4 2809 2810 2911 2910
4 2810 2811 2912 2911
4 2811 2812 2913 2912
4 2812 2813 2914 2913
4 2813 2814 2915 2914
4 2814 2815 2916 2915
4 2815 2816 2917 2916
4 2816 2817 2918 2917
4 2817 2818 2919 2918
4 2818 2819 2920 2919
4 2819 2820 2921 2920
4 2820 2821 2922 2921
4 2821 2822 2923 2922
4 2822 2823 2924 2923
4 2823 2824 2925 2924
4 2824 2825 2926 2925
4 2825 2826 2927 2926
4 2826 2827 2928 2927
4 2828 2829 2930 2929
4 2829 2830 2931 2930
4 2830 2831 2932 2931
4 2831 2832 2933 2932
4 2832 2833 2934 2933
4 2833 2834 2935 2934
4 2834 2835 2936 2935
4 2835 2836 2937 2936
4 2836 2837 2938 2937
4 2837 2838 2939 2938
4 2838 2839 2940 2939
4 2839 2840 2941 2940
4 2840 2841 2942 2941
4 2841 2842 2943 2942
4 2842 2843 2944 2943
4 2843 2844 2945 2944
4 2844 2845 2946 2945
4 2845 2846 2947 2946
4 2846 2847 2948 2947
4 2847 2848 2949 2948
4 2848 2849 2950 2949
4 2849 2850 2951 2950
4 2850 2851 2952 2951
4 2851 2852 2953 2952
4 2852 2853 2954 2953
4 2853 2854 2955 2954
4 2854 2855 2956 2955
4 2855 2856 2957 2956
4 2856 2857 2958 2957
4 2857 2858 2959 2958
4 2858 2859 2960 2959
4 2859 2860 2961 2960
4 2860 2861 2962 2961
4 2861 2862 2963 2962
4 2862 2863 2964 2963
4 2863 2864 2965 2964
4 2864 2865 2966 2965
4 2865 2866 2967 2966
4 2866 2867 2968 2967
4 2867 2868 2969 2968
4 2868 2869 2970 2969
4 2869 2870 2971 2970
4 2870 2871 2972 2971
4 2871 2872 2973 2972
4 2872 2873 2974 2973
4 2873 2874 2975 2974
4 2874 2875 2976 2975
4 2875 2876 2977 2976
4 2876 2877 2978 2977
4 2877 2878 2979 2978
4 2878 2879 2980 2979
4 2879 2880 2981 2980
4 2880 2881 2982 2981
4 2881 2882 2983 2982
4 2882 2883 2984 2983
4 2883 2884 2985 2984
4 2884 2885 2986 2985
4 2885 2886 2987 2986
4 2886 2887 2988 2987
4 2887 2888 2989 2988
4 2888 2889 2990 2989
4 2889 2890 2991 2990
4 2890 2891 2992 2991
4 2891 2892 2993 2992
4 2892 2893 2994 2993
4 2893 2894 2995 2994
4 2894 2895 2996 2995
4 2895 2896 2997 2996
4 2896 2897 2998 2997
4 2897 2898 2999 2998
4 2898 2899 3000 2999
4 2899 2900 3001 3000
4 2900 2901 3002 3001
4 2901 2902 3003 3002
4 2902 2903 3004 3003
4 2903 2904 3005 3004
4 2904 2905 3006 3005
4 2905 2906 3007 3006
4 2906 2907 3008 3007
4 2907 2908 3009 3008
4 2908 2909 3010 3009
4 2909 2910 3011 3010
4 2910 2911 3012 3011
4 2911 2912 3013 3012
4 2912 2913 3014 3013
4 2913 2914 3015 3014
4 2914 2915 3016 3015
4 2915 2916 3017 3016
4 2916 2917 3018 3017
4 2917 2918 3019 3018
4 2918 2919 3020 3019
4 2919 2920 3021 3020
4 2920 2921 3022 3021
4 2921 2922 3023 3022
4 2922 2923 3024 3023
4 2923 2924 3025 3024
4 2924 2925 3026 3025
4 2925 2926 3027 3026
4 2926 2927 3028 3027
4 2927 2928 3029 3028
4 2929 2930 3031 3030
4 2930 2931 3032 3031
4 2931 2932 3033 3032
4 2932 2933 3034 3033
4 2933 2934 3035 3034
4 2934 2935 3036 3035
4 2935 2936 3037 3036
4 2936 2937 3038 3037
4 2937 2938 3039 3038
4 2938 2939 3040 3039
4 2939 2940 3041 3040
4 2940 2941 3042 3041
4 2941 2942 3043 3042
4 2942 2943 3044 3043
4 2943 2944 3045 3044
4 2944 2945 3046 3045
4 2945 2946 3047 3046
4 2946 2947 3048 3047
4 2947 2948 3049 3048
4 2948 2949 3050 3049
4 2949 2950 3051 3050
4 2950 2951 3052 3051
4 2951 2952 3053 3052
4 2952 2953 3054 3053
4 2953 2954 3055 3054
4 2954 2955 3056 3055
4 2955 2956 3057 3056
4 2956 2957 3058 3057
4 2957 2958 3059 3058
4 2958 2959 3060 3059
4 2959 2960 3061 3060
4 2960 2961 3062 3061
4 2961 2962 3063 3062
4 2962 2963 3064 3063
4 2963 2964 3065 3064
4 2964 2965 3066 3065
4 2965 2966 3067 3066
4 2966 2967 3068 3067
4 2967 2968 3069 3068
4 2968 2969 3070 3069
4 2969 2970 3071 3070
4 2970 2971 3072 3071
4 2971 2972 3073 3072
4 2972 2973 3074 3073
4 2973 2974 3075 3074
4 2974 2975 3076 3075
4 2975 2976 3077 3076
4 2976 2977 3078 3077
4 2977 2978 3079 3078
4 2978 2979 3080 3079
4 2979 2980 3081 3080
4 2980 2981 3082 3081
4 2981 2982 3083 3082
4 2982 2983 3084 3083
4 2983 2984 3085 3084
4 2984 2985 3086 3085
4 2985 2986 3087 3086
4 2986 2987 3088 3087
4 2987 2988 3089 3088
4 2988 2989 3090 3089
4 2989 2990 3091 3090
4 2990 2991 3092 3091
4 2991 2992 3093 3092
4 2992 2993 3094 3093
4 2993 2994 3095 3094
4 2994 2995 3096 3095
4 2995 2996 3097 3096
4 2996 2997 3098 3097
4 2997 2998 3099 3098
4 2998 2999 3100 3099
4 2999 3000 3101 3100
4 3000 3001 3102 3101
4 3001 3002 3103 3102
4 3002 3003 3104 3103
4 3003 3004 3105 3104
4 3004 3005 3106 3105
4 3005 3006 3107 3106
4 3006 3007 3108 3107
4 3007 3008 3109 3108
4 3008 3009 3110 3109
4 3009 3010 3111 3110
4 3010 3011 3112 3111
4 3011 3012 3113 3112
4 3012 3013 3114 3113
4 3013 3014 3115 3114
4 3014 3015 3116 3115
4 3015 3016 3117 3116
4 3016 3017 3118 3117
4 3017 3018 3119 3118
4 3018 3019 3120 3119
4 3019 3020 3121 3120
4 3020 3021 3122 3121
4 3021 3022 3123 3122
4 3022 3023 3124 3123
4 3023 3024 3125 3124
4 3024 3025 3126 3125
4 3025 3026 3127 3126
4 3026 3027 3128 3127
4 3027 3028 3129 3128
4 3028 3029 3130 3129
4 3030 3031 3132 3131
4 3031 3032 3133 3132
4 3032 3033 3134 3133
4 3033 3034 3135 3134
4 3034 3035 3136 3135
4 3035 3036 3137 3136
4 3036 3037 3138 3137
4 3037 3038 3139 3138
4 3038 3039 3140 3139
4 3039 3040 3141 3140
4 3040 3041 3142 3141
4 3041 3042 3143 3142
4 3042 3043 3144 3143
4 3043 3044 3145 3144
4 3044 3045 3146 3145
4 3045 3046 3147 3146
4 3046 3047 3148 3147
4 3047 3048 3149 3148
4 3048 3049 3150 3149
4 3049 3050 3151 3150
4 3050 3051 3152 3151
4 3051 3052 3153 3152
4 3052 3053 3154 3153
4 3053 3054 3155 3154
4 3054 3055 3156 3155
4 3055 3056 3157 3156
4 3056 3057 3158 3157
4 3057 3058 3159 3158
4 3058 3059 3160 3159
4 3059 3060 3161 3160
4 3060 3061 3162 3161
4 3061 3062 3163 3162
4 3062 3063 3164 3163
4 3063 3064 3165 3164
4 3064 3065 3166 3165
4 3065 3066 3167 3166
4 3066 3067 3168 3167
4 3067 3068 3169 3168
4 3068 3069 3170 3169
4 3069 3070 3171 3170
4 3070 3071 3172 3171
4 3071 3072 3173 3172
4 3072 3073 3174 3173
4 3073 3074 3175 3174
4 3074 3075 3176 3175
4 3075 3076 3177 3176
4 3076 3077 3178 3177
4 3077 3078 3179 3178
4 3078 3079 3180 3179
4 3079 3080 3181 3180
4 3080 3081 3182 3181
4 3081 3082 3183 3182
4 3082 3083 3184 3183
4 3083 3084 3185 3184
4 3084 3085 3186 3185
4 3085 3086 3187 3186
4 3086 3087 3188 3187
4 3087 3088 3189 3188
4 3088 3089 3190 3189
4 3089 3090 3191 3190
4 3090 3091 3192 3191
4 3091 3092 3193 3192
4 3092 3093 3194 3193
4 3093 3094 3195 3194
4 3094 3095 3196 3195
4 3095 3096 3197 3196
4 3096 3097 3198 3197
4 3097 3098 3199 3198
4 3098 3099 3200 3199
4 3099 3100 3201 3200
4 3100 3101 3202 3201
4 3101 3102 3203 3202
4 3102 3103 3204 3203
4 3103 3104 3205 3204
4 3104 3105 3206 3205
4 3105 3106 3207 3206
4 3106 3107 3208 3207
4 3107 3108 3209 3208
4 3108 3109 3210 3209
4 3109 3110 3211 3210
4 3110 3111 3212 3211
4 3111 3112 3213 3212
4 3112 3113 3214 3213
4 3113 3114 3215 3214
4 3114 3115 3216 3215
4 3115 3116 3217 3216
4 3116 3117 3218 3217
4 3117 3118 3219 3218
4 3118 3119 3220 3219
4 3119 3120 3221 3220
4 3120 3121 3222 3221
4 3121 3122 3223 3222
4 3122 3123 3224 3223
4 3123 3124 3225 3224
4 3124 3125 3226 3225
4 3125 3126 3227 3226
4 3126 3127 3228 3227
4 3127 3128 3229 3228
4 3128 3129 3230 3229
4 3129 3130 3231 3230
4 3131 3132 3233 3232
4 3132 3133 3234 3233
4 3133 3134 3235 3234
4 3134 3135 3236 3235
4 3135 3136 3237 3236
4 3136 3137 3238 3237
4 3137 3138 3239 3238
4 3138 3139 3240 3239
4 3139 3140 3241 3240
4 3140 3141 3242 3241
4 3141 3142 3243 3242
4 3142 3143 3244 3243
4 3143 3144 3245 3244
4 3144 3145 3246 3245
4 3145 3146 3247 3246
4 3146 3147 3248 3247
4 3147 3148 3249 3248
4 3148 3149 3250 3249
4 3149 3150 3251 3250
4 3150 3151 3252 3251
4 3151 3152 3253 3252
4 3152 3153 3254 3253
4 3153 3154 3255 3254
4 3154 3155 3256 3255
4 3155 3156 3257 3256
4 3156 3157 3258 3257
4 3157 3158 3259 3258
4 3158 3159 3260 3259
4 3159 3160 3261 3260
4 3160 3161 3262 3261
4 3161 3162 3263 3262
4 3162 3163 3264 3263
4 3163 3164 3265 3264
4 3164 3165 3266 3265
4 3165 3166 3267 3266
4 3166 3167 3268 3267
4 3167 3168 3269 3268
4 3168 3169 3270 3269
4 3169 3170 3271 3270
4 3170 3171 3272 3271
4 3171 3172 3273 3272
4 3172 3173 3274 3273
4 3173 3174 3275 3274
4 3174 3175 3276 3275
4 3175 3176 3277 3276
4 3176 3177 3278 3277
4 3177 3178 3279 3278
4 3178 3179 3280 3279
4 3179 3180 3281 3280
4 3180 3181 3282 3281
4 3181 3182 3283 3282
4 3182 3183 3284 3283
4 3183 3184 3285 3284
4 3184 3185 3286 3285
4 3185 3186 3287 3286
4 3186 3187 3288 3287
4 3187 3188 3289 3288
4 3188 3189 3290 3289
4 3189 3190 3291 3290
4 3190 3191 3292 3291
4 3191 3192 3293 3292
4 3192 3193 3294 3293
4 3193 3194 3295 3294
4 3194 3195 3296 3295
4 3195 3196 3297 3296
4 3196 3197 3298 3297
4 3197 3198 3299 3298
4 3198 3199 3300 3299
4 3199 3200 3301 3300
4 3200 3201 3302 3301
4 3201 3202 3303 3302
4 3202 3203 3304 3303
4 3203 3204 3305 3304
4 3204 3205 3306 3305
4 3205 3206 3307 3306
4 3206 3207 3308 3307
4 3207 3208 3309 3308
4 3208 3209 3310 3309
4 3209 3210 3311 3310
4 3210 3211 3312 3311
4 3211 3212 3313 3312
4 3212 3213 3314 3313
4 3213 3214 3315 3314
4 3214 3215 3316 3315
4 3215 3216 3317 3316
4 3216 3217 3318 3317
4 3217 3218 3319 3318
4 3218 3219 3320 3319
4 3219 3220 3321 3320
4 3220 3221 3322 3321
4 3221 3222 3323 3322
4 3222 3223 3324 3323
4 3223 3224 3325 3324
4 3224 3225 3326 3325
4 3225 3226 3327 3326
4 3226 3227 3328 3327
4 3227 3228 3329 3328
4 3228 3229 3330 3329
4 3229 3230 3331 3330
4 3230 3231 3332 3331
4 3232 3233 3334 3333
4 3233 3234 3335 3334
4 3234 3235 3336 3335
4 3235 3236 3337 3336
4 3236 3237 3338 3337
4 3237 3238 3339 3338
4 3238 3239 3340 3339
4 3239 3240 3341 3340
4 3240 3241 3342 3341
4 3241 3242 3343 3342
4 3242 3243 3344 3343
4 3243 3244 3345 3344
4 3244 3245 3346 3345
4 3245 3246 3347 3346
4 3246 3247 3348 3347
4 3247 3248 3349 3348
4 3248 3249 3350 3349
4 3249 3250 3351 3350
4 3250 3251 3352 3351
4 3251 3252 3353 3352
4 3252 3253 3354 3353
4 3253 3254 3355 3354
4 3254 3255 3356 3355
4 3255 3256 3357 3356
4 3256 3257 3358 3357
4 3257 3258 3359 3358
4 3258 3259 3360 3359
4 3259 3260 3361 3360
4 3260 3261 3362 3361
4 3261 3262 3363 3362
4 3262 3263 3364 3363
4 3263 3264 3365 3364
4 3264 3265 3366 3365
4 3265 3266 3367 3366
4 3266 3267 3368 3367
4 3267 3268 3369 3368
4 3268 3269 3370 3369
4 3269 3270 3371 3370
4 3270 3271 3372 3371
4 3271 3272 3373 3372
4 3272 3273 3374 3373
4 3273 3274 3375 3374
4 3274 3275 3376 3375
4 3275 3276 3377 3376
4 3276 3277 3378 3377
4 3277 3278 3379 3378
4 3278 3279 3380 3379
4 3279 3280 3381 3380
4 3280 3281 3382 3381
4 3281 3282 3383 3382
4 3282 3283 3384 3383
4 3283 3284 3385 3384
4 3284 3285 3386 3385
4 3285 3286 3387 3386
4 3286 3287 3388 3387
4 3287 3288 3389 3388
4 3288 3289 3390 3389
4 3289 3290 3391 3390
4 3290 3291 3392 3391
4 3291 3292 3393 3392
4 3292 3293 3394 3393
4 3293 3294 3395 3394
4 3294 3295 3396 3395
4 3295 3296 3397 3396
4 3296 3297 3398 3397
4 3297 3298 3399 3398
4 3298 3299 3400 3399
4 3299 3300 3401 3400
4 3300 3301 3402 3401
4 3301 3302 3403 3402
4 3302 3303 3404 3403
4 3303 3304 3405 3404
4 3304 3305 3406 3405
4 3305 3306 3407 3406
4 3306 3307 3408 3407
4 3307 3308 3409 3408
4 3308 3309 3410 3409
4 3309 3310 3411 3410
4 3310 3311 3412 3411
4 3311 3312 3413 3412
4 3312 3313 3414 3413
4 3313 3314 3415 3414
4 3314 3315 3416 3415
4 3315 3316 3417 3416
4 3316 3317 3418 3417
4 3317 3318 3419 3418
4 3318 3319 3420 3419
4 3319 3320 3421 3420
4 3320 3321 3422 3421
4 3321 3322 3423 3422
4 3322 3323 3424 3423
4 3323 3324 3425 3424
4 3324 3325 3426 3425
4 3325 3326 3427 3426
4 3326 3327 3428 3427
4 3327 3328 3429 3428
4 3328 3329 3430 3429
4 3329 3330 3431 3430
4 3330 3331 3432 3431
4 3331 3332 3433 3432
4 3333 3334 3435 3434
4 3334 3335 3436 3435
4 3335 3336 3437 3436
4 3336 3337 3438 3437
4 3337 3338 3439 3438
4 3338 3339 3440 3439
4 3339 3340 3441 3440
4 3340 3341 3442 3441
4 3341 3342 3443 3442
4 3342 3343 3444 3443
4 3343 3344 3445 3444
4 3344 3345 3446 3445
4 3345 3346 3447 3446
4 3346 3347 3448 3447
4 3347 3348 3449 3448
4 3348 3349 3450 3449
4 3349 3350 3451 3450
4 3350 3351 3452 3451
4 3351 3352 3453 3452
4 3352 3353 3454 3453
4 3353 3354 3455 3454
4 3354 3355 3456 3455
4 3355 3356 3457 3456
4 3356 3357 3458 3457
4 3357 3358 3459 3458
4 3358 3359 3460 3459
4 3359 3360 3461 3460
4 3360 3361 3462 3461
4 3361 3362 3463 3462
4 3362 3363 3464 3463
4 3363 3364 3465 3464
4 3364 3365 3466 3465
4 3365 3366 3467 3466
4 3366 3367 3468 3467
4 3367 3368 3469 3468
4 3368 3369 3470 3469
4 3369 3370 3471 3470
4 3370 3371 3472 3471
4 3371 3372 3473 3472
4 3372 3373 3474 3473
4 3373 3374 3475 3474
4 3374 3375 3476 3475
4 3375 3376 3477 3476
4 3376 3377 3478 3477
4 3377 3378 3479 3478
4 3378 3379 3480 3479
4 3379 3380 3481 3480
4 3380 3381 3482 3481
4 3381 3382 3483 3482
4 3382 3383 3484 3483
4 3383 3384 3485 3484
4 3384 3385 3486 3485
4 3385 3386 3487 3486
4 3386 3387 3488 3487
4 3387 3388 3489 3488
4 3388 3389 3490 3489
4 3389 3390 3491 3490
4 3390 3391 3492 3491
4 3391 3392 3493 3492
4 3392 3393 3494 3493
4 3393 3394 3495 3494
4 3394 3395 3496 3495
4 3395 3396 3497 3496
4 3396 3397 3498 3497
4 3397 3398 3499 3498
4 3398 3399 3500 3499
4 3399 3400 3501 3500
4 3400 3401 3502 3501
4 3401 3402 3503 3502
4 3402 3403 3504 3503
4 3403 3404 3505 3504
4 3404 3405 3506 3505
4 3405 3406 3507 3506
4 3406 3407 3508 3507
4 3407 3408 3509 3508
4 3408 3409 3510 3509
4 3409 3410 3511 3510
4 3410 3411 3512 3511
4 3411 3412 3513 3512
4 3412 3413 3514 3513
4 3413 3414 3515 3514
4 3414 3415 3516 3515
4 3415 3416 3517 3516
4 3416 3417 3518 3517
4 3417 3418 3519 3518
4 3418 3419 3520 3519
4 3419 3420 3521 3520
4 3420 3421 3522 3521
4 3421 3422 3523 3522
4 3422 3423 3524 3523
4 3423 3424 3525 3524
4 3424 3425 3526 3525
4 3425 3426 3527 3526
4 3426 3427 3528 3527
4 3427 3428 3529 3528
4 3428 3429 3530 3529
4 3429 3430 3531 3530
4 3430 3431 3532 3531
4 3431 3432 3533 3532
4 3432 3433 3534 3533
4 3434 3435 3536 3535
4 3435 3436 3537 3536
4 3436 3437 3538 3537
4 3437 3438 3539 3538
4 3438 3439 3540 3539
4 3439 3440 3541 3540
4 3440 3441 3542 3541
4 3441 3442 3543 3542
4 3442 3443 3544 3543
4 3443 3444 3545 3544
4 3444 3445 3546 3545
4 3445 3446 3547 3546
4 3446 3447 3548 3547
4 3447 3448 3549 3548
4 3448 3449 3550 3549
4 3449 3450 3551 3550
4 3450 3451 3552 3551
4 3451 3452 3553 3552
4 3452 3453 3554 3553
4 3453 3454 3555 3554
4 3454 3455 3556 3555
4 3455 3456 3557 3556
4 3456 3457 3558 3557
4 3457 3458 3559 3558
4 3458 3459 3560 3559
4 3459 3460 3561 3560
4 3460 3461 3562 3561
4 3461 3462 3563 3562
4 3462 3463 3564 3563
4 3463 3464 3565 3564
4 3464 3465 3566 3565
4 3465 3466 3567 3566
4 3466 3467 3568 3567
4 3467 3468 3569 3568
4 3468 3469 3570 3569
4 3469 3470 3571 3570
4 3470 3471 3572 3571
4 3471 3472 3573 3572
4 3472 3473 3574 3573
4 3473 3474 3575 3574
4 3474 3475 3576 3575
4 3475 3476 3577 3576
4 3476 3477 3578 3577
4 3477 3478 3579 3578
4 3478 3479 3580 3579
4 3479 3480 3581 3580
4 3480 3481 3582 3581
4 3481 3482 3583 3582
4 3482 3483 3584 3583
4 3483 3484 3585 3584
4 3484 3485 3586 3585
4 3485 3486 3587 3586
4 3486 3487 3588 3587
4 3487 3488 3589 3588
4 3488 3489 3590 3589
4 3489 3490 3591 3590
4 3490 3491 3592 3591
4 3491 3492 3593 3592
4 3492 3493 3594 3593
4 3493 3494 3595 3594
4 3494 3495 3596 3595
4 3495 3496 3597 3596
4 3496 3497 3598 3597
4 3497 3498 3599 3598
4 3498 3499 3600 3599
4 3499 3500 3601 3600
4 3500 3501 3602 3601
4 3501 3502 3603 3602
4 3502 3503 3604 3603
4 3503 3504 3605 3604
4 3504 3505 3606 3605
4 3505 3506 3607 3606
4 3506 3507 3608 3607
4 3507 3508 3609 3608
4 3508 3509 3610 3609
4 3509 3510 3611 3610
4 3510 3511 3612 3611
4 3511 3512 3613 3612
4 3512 3513 3614 3613
4 3513 3514 3615 3614
4 3514 3515 3616 3615
4 3515 3516 3617 3616
4 3516 3517 3618 3617
4 3517 3518 3619 3618
4 3518 3519 3620 3619
4 3519 3520 3621 3620
4 3520 3521 3622 3621
4 3521 3522 3623 3622
4 3522 3523 3624 3623
4 3523 3524 3625 3624
4 3524 3525 3626 3625
4 3525 3526 3627 3626
4 3526 3527 3628 3627
4 3527 3528 3629 3628
4 3528 3529 3630 3629
4 3529 3530 3631 3630
4 3530 3531 3632 3631
4 3531 3532 3633 3632
4 3532 3533 3634 3633
4 3533 3534 3635 3634
4 3535 3536 3637 3636
4 3536 3537 3638 3637
4 3537 3538 3639 3638
4 3538 3539 3640 3639
4 3539 3540 3641 3640
4 3540 3541 3642 3641
4 3541 3542 3643 3642
4 3542 3543 3644 3643
4 3543 3544 3645 3644
4 3544 3545 3646 3645
4 3545 3546 3647 3646
4 3546 3547 3648 3647
4 3547 3548 3649 3648
4 3548 3549 3650 3649
4 3549 3550 3651 3650
4 3550 3551 3652 3651
4 3551 3552 3653 3652
4 3552 3553 3654 3653
4 3553 3554 3655 3654
4 3554 3555 3656 3655
4 3555 3556 3657 3656
4 3556 3557 3658 3657
4 3557 3558 3659 3658
4 3558 3559 3660 3659
4 3559 3560 3661 3660
4 3560 3561 3662 3661
4 3561 3562 3663 3662
4 3562 3563 3664 3663
4 3563 3564 3665 3664
4 3564 3565 3666 3665
4 3565 3566 3667 3666
4 3566 3567 3668 3667
4 3567 3568 3669 3668
4 3568 3569 3670 3669
4 3569 3570 3671 3670
4 3570 3571 3672 3671
4 3571 3572 3673 3672
4 3572 3573 3674 3673
4 3573 3574 3675 3674
4 3574 3575 3676 3675
4 3575 3576 3677 3676
4 3576 3577 3678 3677
4 3577 3578 3679 3678
4 3578 3579 3680 3679
4 3579 3580 3681 3680
4 3580 3581 3682 3681
4 3581 3582 3683 3682
4 3582 3583 3684 3683
4 3583 3584 3685 3684
4 3584 3585 3686 3685
4 3585 3586 3687 3686
4 3586 3587 3688 3687
4 3587 3588 3689 3688
4 3588 3589 3690 3689
4 3589 3590 3691 3690
4 3590 3591 3692 3691
4 3591 3592 3693 3692
4 3592 3593 3694 3693
4 3593 3594 3695 3694
4 3594 3595 3696 3695
4 3595 3596 3697 3696
4 3596 3597 3698 3697
4 3597 3598 3699 3698
4 3598 3599 3700 3699
4 3599 3600 3701 3700
4 3600 3601 3702 3701
4 3601 3602 3703 3702
4 3602 3603 3704 3703
4 3603 3604 3705 3704
4 3604 3605 3706 3705
4 3605 3606 3707 3706
4 3606 3607 3708 3707
4 3607 3608 3709 3708
4 3608 3609 3710 3709
4 3609 3610 3711 3710
4 3610 3611 3712 3711
4 3611 3612 3713 3712
4 3612 3613 3714 3713
4 3613 3614 3715 3714
4 3614 3615 3716 3715
4 3615 3616 3717 3716
4 3616 3617 3718 3717
4 3617 3618 3719 3718
4 3618 3619 3720 3719
4 3619 3620 3721 3720
4 3620 3621 3722 3721
4 3621 3622 3723 3722
4 3622 3623 3724 3723
4 3623 3624 3725 3724
4 3624 3625 3726 3725
4 3625 3626 3727 3726
4 3626 3627 3728 3727
4 3627 3628 3729 3728
4 3628 3629 3730 3729
4 3629 3630 3731 3730
4 3630 3631 3732 3731
4 3631 3632 3733 3732
4 3632 3633 3734 3733
4 3633 3634 3735 3734
4 3634 3635 3736 3735
4 3636 3637 3738 3737
4 3637 3638 3739 3738
4 3638 3639 3740 3739
4 3639 3640 3741 3740
4 3640 3641 3742 3741
4 3641 3642 3743 3742
4 3642 3643 3744 3743
4 3643 3644 3745 3744
4 3644 3645 3746 3745
4 3645 3646 3747 3746
4 3646 3647 3748 3747
4 3647 3648 3749 3748
4 3648 3649 3750 3749
4 3649 3650 3751 3750
4 3650 3651 3752 3751
4 3651 3652 3753 3752
4 3652 3653 3754 3753
4 3653 3654 3755 3754
4 3654 3655 3756 3755
4 3655 3656 3757 3756
4 3656 3657 3758 3757
4 3657 3658 3759 3758
4 3658 3659 3760 3759
4 3659 3660 3761 3760
4 3660 3661 3762 3761
4 3661 3662 3763 3762
4 3662 3663 3764 3763
4 3663 3664 3765 3764
4 3664 3665 3766 3765
4 3665 3666 3767 3766
4 3666 3667 3768 3767
4 3667 3668 3769 3768
4 3668 3669 3770 3769
4 3669 3670 3771 3770
4 3670 3671 3772 3771
4 3671 3672 3773 3772
4 3672 3673 3774 3773
4 3673 3674 3775 3774
4 3674 3675 3776 3775
4 3675 3676 3777 3776
4 3676 3677 3778 3777
4 3677 3678 3779 3778
4 3678 3679 3780 3779
4 3679 3680 3781 3780
4 3680 3681 3782 3781
4 3681 3682 3783 3782
4 3682 3683 3784 3783
4 3683 3684 3785 3784
4 3684 3685 3786 3785
4 3685 3686 3787 3786
4 3686 3687 3788 3787
4 3687 3688 3789 3788
4 3688 3689 3790 3789
4 3689 3690 3791 3790
4 3690 3691 3792 3791
4 3691 3692 3793 3792
4 3692 3693 3794 3793
4 3693 3694 3795 3794
4 3694 3695 3796 3795
4 3695 3696 3797 3796
4 3696 3697 3798 3797
4 3697 3698 3799 3798
4 3698 3699 3800 3799
4 3699 3700 3801 3800
4 3700 3701 3802 3801
4 3701 3702 3803 3802
4 3702 3703 3804 3803
4 3703 3704 3805 3804
4 3704 3705 3806 3805
4 3705 3706 3807 3806
4 3706 3707 3808 3807
4 3707 3708 3809 3808
4 3708 3709 3810 3809
4 3709 3710 3811 3810
4 3710 3711 3812 3811
4 3711 3712 3813 3812
4 3712 3713 3814 3813
4 3713 3714 3815 3814
4 3714 3715 3816 3815
4 3715 3716 3817 3816
4 3716 3717 3818 3817
4 3717 3718 3819 3818
4 3718 3719 3820 3819
4 3719 3720 3821 3820
4 3720 3721 3822 3821
4 3721 3722 3823 3822
4 3722 3723 3824 3823
4 3723 3724 3825 3824
4 3724 3725 3826 3825
4 3725 3726 3827 3826
4 3726 3727 3828 3827
4 3727 3728 3829 3828
4 3728 3729 3830 3829
4 3729 3730 3831 3830
4 3730 3731 3832 3831
4 3731 3732 3833 3832
4 3732 3733 3834 3833
4 3733 3734 3835 3834
4 3734 3735 3836 3835
4 3735 3736 3837 3836
4 3737 3738 3839 3838
4 3738 3739 3840 3839
4 3739 3740 3841 3840
4 3740 3741 3842 3841
4 3741 3742 3843 3842
4 3742 3743 3844 3843
4 3743 3744 3845 3844
4 3744 3745 3846 3845
4 3745 3746 3847 3846
4 3746 3747 3848 3847
4 3747 3748 3849 3848
4 3748 3749 3850 3849
4 3749 3750 3851 3850
4 3750 3751 3852 3851
4 3751 3752 3853 3852
4 3752 3753 3854 3853
4 3753 3754 3855 3854
4 3754 3755 3856 3855
4 3755 3756 3857 3856
4 3756 3757 3858 3857
4 3757 3758 3859 3858
4 3758 3759 3860 3859
4 3759 3760 3861 3860
4 3760 3761 3862 3861
4 3761 3762 3863 3862
4 3762 3763 3864 3863
4 3763 3764 3865 3864
4 3764 3765 3866 3865
4 3765 3766 3867 3866
4 3766 3767 3868 3867
4 3767 3768 3869 3868
4 3768 3769 3870 3869
4 3769 3770 3871 3870
4 3770 3771 3872 3871
4 3771 3772 3873 3872
4 3772 3773 3874 3873
4 3773 3774 3875 3874
4 3774 3775 3876 3875
4 3775 3776 3877 3876
4 3776 3777 3878 3877
4 3777 3778 3879 3878
4 3778 3779 3880 3879
4 3779 3780 3881 3880
4 3780 3781 3882 3881
4 3781 3782 3883 3882
4 3782 3783 3884 3883
4 3783 3784 3885 3884
4 3784 3785 3886 3885
4 3785 3786 3887 3886
4 3786 3787 3888 3887
4 3787 3788 3889 3888
4 3788 3789 3890 3889
4 3789 3790 3891 3890
4 3790 3791 3892 3891
4 3791 3792 3893 3892
4 3792 3793 3894 3893
4 3793 3794 3895 3894
4 3794 3795 3896 3895
4 3795 3796 3897 3896
4 3796 3797 3898 3897
4 3797 3798 3899 3898
4 3798 3799 3900 3899
4 3799 3800 3901 3900
4 3800 3801 3902 3901
4 3801 3802 3903 3902
4 3802 3803 3904 3903
4 3803 3804 3905 3904
4 3804 3805 3906 3905
4 3805 3806 3907 3906
4 3806 3807 3908 3907
4 3807 3808 3909 3908
4 3808 3809 3910 3909
4 3809 3810 3911 3910
4 3810 3811 3912 3911
4 3811 3812 3913 3912
4 3812 3813 3914 3913
4 3813 3814 3915 3914
4 3814 3815 3916 3915
4 3815 3816 3917 3916
4 3816 3817 3918 3917
4 3817 3818 3919 3918
4 3818 3819 3920 3919
4 3819 3820 3921 3920
4 3820 3821 3922 3921
4 3821 3822 3923 3922
4 3822 3823 3924 3923
4 3823 3824 3925 3924
4 3824 3825 3926 3925
4 3825 3826 3927 3926
4 3826 3827 3928 3927
4 3827 3828 3929 3928
4 3828 3829 3930 3929
4 3829 3830 3931 3930
4 3830 3831 3932 3931
4 3831 3832 3933 3932
4 3832 3833 3934 3933
4 3833 3834 3935 3934
4 3834 3835 3936 3935
4 3835 3836 3937 3936
4 3836 3837 3938 3937
4 3838 3839 3940 3939
4 3839 3840 3941 3940
4 3840 3841 3942 3941
4 3841 3842 3943 3942
4 3842 3843 3944 3943
4 3843 3844 3945 3944
4 3844 3845 3946 3945
4 3845 3846 3947 3946
4 3846 3847 3948 3947
4 3847 3848 3949 3948
4 3848 3849 3950 3949
4 3849 3850 3951 3950
4 3850 3851 3952 3951
4 3851 3852 3953 3952
4 3852 3853 3954 3953
4 3853 3854 3955 3954
4 3854 3855 3956 3955
4 3855 3856 3957 3956
4 3856 3857 3958 3957
4 3857 3858 3959 3958
4 3858 3859 3960 3959
4 3859 3860 3961 3960
4 3860 3861 3962 3961
4 3861 3862 3963 3962
4 3862 3863 3964 3963
4 3863 3864 3965 3964
4 3864 3865 3966 3965
4 3865 3866 3967 3966
4 3866 3867 3968 3967
4 3867 3868 3969 3968
4 3868 3869 3970 3969
4 3869 3870 3971 3970
4 3870 3871 3972 3971
4 3871 3872 3973 3972
4 3872 3873 3974 3973
4 3873 3874 3975 3974
4 3874 3875 3976 3975
4 3875 3876 3977 3976
4 3876 3877 3978 3977
4 3877 3878 3979 3978
4 3878 3879 3980 3979
4 3879 3880 3981 3980
4 3880 3881 3982 3981
4 3881 3882 3983 3982
4 3882 3883 3984 3983
4 3883 3884 3985 3984
4 3884 3885 3986 3985
4 3885 3886 3987 3986
4 3886 3887 3988 3987
4 3887 3888 3989 3988
4 3888 3889 3990 3989
4 3889 3890 3991 3990
4 3890 3891 3992 3991
4 3891 3892 3993 3992
4 3892 3893 3994 3993
4 3893 3894 3995 3994
4 3894 3895 3996 3995
4 3895 3896 3997 3996
4 3896 3897 3998 3997
4 3897 3898 3999 3998
4 3898 3899 4000 3999
4 3899 3900 4001 4000
4 3900 3901 4002 4001
4 3901 3902 4003 4002
4 3902 3903 4004 4003
4 3903 3904 4005 4004
4 3904 3905 4006 4005
4 3905 3906 4007 4006
4 3906 3907 4008 4007
4 3907 3908 4009 4008
4 3908 3909 4010 4009
4 3909 3910 4011 4010
4 3910 3911 4012 4011
4 3911 3912 4013 4012
4 3912 3913 4014 4013
4 3913 3914 4015 4014
4 3914 3915 4016 4015
4 3915 3916 4017 4016
4 3916 3917 4018 4017
4 3917 3918 4019 4018
4 3918 3919 4020 4019
4 3919 3920 4021 4020
4 3920 3921 4022 4021
4 3921 3922 4023 4022
4 3922 3923 4024 4023
4 3923 3924 4025 4024
4 3924 3925 4026 4025
4 3925 3926 4027 4026
4 3926 3927 4028 4027
4 3927 3928 4029 4028
4 3928 3929 4030 4029
4 3929 3930 4031 4030
4 3930 3931 4032 4031
4 3931 3932 4033 4032
4 3932 3933 4034 4033
4 3933 3934 4035 4034
4 3934 3935 4036 4035
4 3935 3936 4037 4036
4 3936 3937 4038 4037
4 3937 3938 4039 4038
4 3939 3940 4041 4040
4 3940 3941 4042 4041
4 3941 3942 4043 4042
4 3942 3943 4044 4043
4 3943 3944 4045 4044
4 3944 3945 4046 4045
4 3945 3946 4047 4046
4 3946 3947 4048 4047
4 3947 3948 4049 4048
4 3948 3949 4050 4049
4 3949 3950 4051 4050
4 3950 3951 4052 4051
4 3951 3952 4053 4052
4 3952 3953 4054 4053
4 3953 3954 4055 4054
4 3954 3955 4056 4055
4 3955 3956 4057 4056
4 3956 3957 4058 4057
4 3957 3958 4059 4058
4 3958 3959 4060 4059
4 3959 3960 4061 4060
4 3960 3961 4062 4061
4 3961 3962 4063 4062
4 3962 3963 4064 4063
4 3963 3964 4065 4064
4 3964 3965 4066 4065
4 3965 3966 4067 4066
4 3966 3967 4068 4067
4 3967 3968 4069 4068
4 3968 3969 4070 4069
4 3969 3970 4071 4070
4 3970 3971 4072 4071
4 3971 3972 4073 4072
4 3972 3973 4074 4073
4 3973 3974 4075 4074
4 3974 3975 4076 4075
4 3975 3976 4077 4076
4 3976 3977 4078 4077
4 3977 3978 4079 4078
4 3978 3979 4080 4079
4 3979 3980 4081 4080
4 3980 3981 4082 4081
4 3981 3982 4083 4082
4 3982 3983 4084 4083
4 3983 3984 4085 4084
4 3984 3985 4086 4085
4 3985 3986 4087 4086
4 3986 3987 4088 4087
4 3987 3988 4089 4088
4 3988 3989 4090 4089
4 3989 3990 4091 4090
4 3990 3991 4092 4091
4 3991 3992 4093 4092
4 3992 3993 4094 4093
4 3993 3994 4095 4094
4 3994 3995 4096 4095
4 3995 3996 4097 4096
4 3996 3997 4098 4097
4 3997 3998 4099 4098
4 3998 3999 4100 4099
4 3999 4000 4101 4100
4 4000 4001 4102 4101
4 4001 4002 4103 4102
4 4002 4003 4104 4103
4 4003 4004 4105 4104
4 4004 4005 4106 4105
4 4005 4006 4107 4106
4 4006 4007 4108 4107
4 4007 4008 4109 4108
4 4008 4009 4110 4109
4 4009 4010 4111 4110
4 4010 4011 4112 4111
4 4011 4012 4113 4112
4 4012 4013 4114 4113
4 4013 4014 4115 4114
4 4014 4015 4116 4115
4 4015 4016 4117 4116
4 4016 4017 4118 4117
4 4017 4018 4119 4118
4 4018 4019 4120 4119
4 4019 4020 4121 4120
4 4020 4021 4122 4121
4 4021 4022 4123 4122
4 4022 4023 4124 4123
4 4023 4024 4125 4124
4 4024 4025 4126 4125
4 4025 4026 4127 4126
4 4026 4027 4128 4127
4 4027 4028 4129 4128
4 4028 4029 4130 4129
4 4029 4030 4131 4130
4 4030 4031 4132 4131
4 4031 4032 4133 4132
4 4032 4033 4134 4133
4 4033 4034 4135 4134
4 4034 4035 4136 4135
4 4035 4036 4137 4136
4 4036 4037 4138 4137
4 4037 4038 4139 4138
4 4038 4039 4140 4139
4 4040 4041 4142 4141
4 4041 4042 4143 4142
4 4042 4043 4144 4143
4 4043 4044 4145 4144
4 4044 4045 4146 4145
4 4045 4046 4147 4146
4 4046 4047 4148 4147
4 4047 4048 4149 4148
4 4048 4049 4150 4149
4 4049 4050 4151 4150
4 4050 4051 4152 4151
4 4051 4052 4153 4152
4 4052 4053 4154 4153
4 4053 4054 4155 4154
4 4054 4055 4156 4155
4 4055 4056 4157 4156
4 4056 4057 4158 4157
4 4057 4058 4159 4158
4 4058 4059 4160 4159
4 4059 4060 4161 4160
4 4060 4061 4162 4161
4 4061 4062 4163 4162
4 4062 4063 4164 4163
4 4063 4064 4165 4164
4 4064 4065 4166 4165
4 4065 4066 4167 4166
4 4066 4067 4168 4167
4 4067 4068 4169 4168
4 4068 4069 4170 4169
4 4069 4070 4171 4170
4 4070 4071 4172 4171
4 4071 4072 4173 4172
4 4072 4073 4174 4173
4 4073 4074 4175 4174
4 4074 4075 4176 4175
4 4075 4076 4177 4176
4 4076 4077 4178 4177
4 4077 4078 4179 4178
4 4078 4079 4180 4179
4 4079 4080 4181 4180
4 4080 4081 4182 4181
4 4081 4082 4183 4182
4 4082 4083 4184 4183
4 4083 4084 4185 4184
4 4084 4085 4186 4185
4 4085 4086 4187 4186
4 4086 4087 4188 4187
4 4087 4088 4189 4188
4 4088 4089 4190 4189
4 4089 4090 4191 4190
4 4090 4091 4192 4191
4 4091 4092 4193 4192
4 4092 4093 4194 4193
4 4093 4094 4195 4194
4 4094 4095 4196 4195
4 4095 4096 4197 4196
4 4096 4097 4198 4197
4 4097 4098 4199 4198
4 4098 4099 4200 4199
4 4099 4100 4201 4200
4 4100 4101 4202 4201
4 4101 4102 4203 4202
4 4102 4103 4204 4203
4 4103 4104 4205 4204
4 4104 4105 4206 4205
4 4105 4106 4207 4206
4 4106 4107 4208 4207
4 4107 4108 4209 4208
4 4108 4109 4210 4209
4 4109 4110 4211 4210
4 4110 4111 4212 4211
4 4111 4112 4213 4212
4 4112 4113 4214 4213
4 4113 4114 4215 4214
4 4114 4115 4216 4215
4 4115 4116 4217 4216
4 4116 4117 4218 4217
4 4117 4118 4219 4218
4 4118 4119 4220 4219
4 4119 4120 4221 4220
4 4120 4121 4222 4221
4 4121 4122 4223 4222
4 4122 4123 4224 4223
4 4123 4124 4225 4224
4 4124 4125 4226 4225
4 4125 4126 4227 4226
4 4126 4127 4228 4227
4 4127 4128 4229 4228
4 4128 4129 4230 4229
4 4129 4130 4231 4230
4 4130 4131 4232 4231
4 4131 4132 4233 4232
4 4132 4133 4234 4233
4 4133 4134 4235 4234
4 4134 4135 4236 4235
4 4135 4136 4237 4236
4 4136 4137 4238 4237
4 4137 4138 4239 4238
4 4138 4139 4240 4239
4 4139 4140 4241 4240
4 4141 4142 4243 4242
4 4142 4143 4244 4243
4 4143 4144 4245 4244
4 4144 4145 4246 4245
4 4145 4146 4247 4246
4 4146 4147 4248 4247
4 4147 4148 4249 4248
4 4148 4149 4250 4249
4 4149 4150 4251 4250
4 4150 4151 4252 4251
4 4151 4152 4253 4252
4 4152 4153 4254 4253
4 4153 4154 4255 4254
4 4154 4155 4256 4255
4 4155 4156 4257 4256
4 4156 4157 4258 4257
4 4157 4158 4259 4258
4 4158 4159 4260 4259
4 4159 4160 4261 4260
4 4160 4161 4262 4261
4 4161 4162 4263 4262
4 4162 4163 4264 4263
4 4163 4164 4265 4264
4 4164 4165 4266 4265
4 4165 4166 4267 4266
4 4166 4167 4268 4267
4 4167 4168 4269 4268
4 4168 4169 4270 4269
4 4169 4170 4271 4270
4 4170 4171 4272 4271
4 4171 4172 4273 4272
4 4172 4173 4274 4273
4 4173 4174 4275 4274
4 4174 4175 4276 4275
4 4175 4176 4277 4276
4 4176 4177 4278 4277
4 4177 4178 4279 4278
4 4178 4179 4280 4279
4 4179 4180 4281 4280
4 4180 4181 4282 4281
4 4181 4182 4283 4282
4 4182 4183 4284 4283
4 4183 4184 4285 4284
4 4184 4185 4286 4285
4 4185 4186 4287 4286
4 4186 4187 4288 4287
4 4187 4188 4289 4288
4 4188 4189 4290 4289
4 4189 4190 4291 4290
4 4190 4191 4292 4291
4 4191 4192 4293 4292
4 4192 4193 4294 4293
4 4193 4194 4295 4294
4 4194 4195 4296 4295
4 4195 4196 4297 4296
4 4196 4197 4298 4297
4 4197 4198 4299 4298
4 4198 4199 4300 4299
4 4199 4200 4301 4300
4 4200 4201 4302 4301
4 4201 4202 4303 4302
4 4202 4203 4304 4303
4 4203 4204 4305 4304
4 4204 4205 4306 4305
4 4205 4206 4307 4306
4 4206 4207 4308 4307
4 4207 4208 4309 4308
4 4208 4209 4310 4309
4 4209 4210 4311 4310
4 4210 4211 4312 4311
4 4211 4212 4313 4312
4 4212 4213 4314 4313
4 4213 4214 4315 4314
4 4214 4215 4316 4315
4 4215 4216 4317 4316
4 4216 4217 4318 4317
4 4217 4218 4319 4318
4 4218 4219 4320 4319
4 4219 4220 4321 4320
4 4220 4221 4322 4321
4 4221 4222 4323 4322
4 4222 4223 4324 4323
4 4223 4224 4325 4324
4 4224 4225 4326 4325
4 4225 4226 4327 4326
4 4226 4227 4328 4327
4 4227 4228 4329 4328
4 4228 4229 4330 4329
4 4229 4230 4331 4330
4 4230 4231 4332 4331
4 4231 4232 4333 4332
4 4232 4233 4334 4333
4 4233 4234 4335 4334
4 4234 4235 4336 4335
4 4235 4236 4337 4336
4 4236 4237 4338 4337
4 4237 4238 4339 4338
4 4238 4239 4340 4339
4 4239 4240 4341 4340
4 4240 4241 4342 4341
4 4242 4243 4344 4343
4 4243 4244 4345 4344
4 4244 4245 4346 4345
4 4245 4246 4347 4346
4 4246 4247 4348 4347
4 4247 4248 4349 4348
4 4248 4249 4350 4349
4 4249 4250 4351 4350
4 4250 4251 4352 4351
4 4251 4252 4353 4352
4 4252 4253 4354 4353
4 4253 4254 4355 4354
4 4254 4255 4356 4355
4 4255 4256 4357 4356
4 4256 4257 4358 4357
4 4257 4258 4359 4358
4 4258 4259 4360 4359
4 4259 4260 4361 4360
4 4260 4261 4362 4361
4 4261 4262 4363 4362
4 4262 4263 4364 4363
4 4263 4264 4365 4364
4 4264 4265 4366 4365
4 4265 4266 4367 4366
4 4266 4267 4368 4367
4 4267 4268 4369 4368
4 4268 4269 4370 4369
4 4269 4270 4371 4370
4 4270 4271 4372 4371
4 4271 4272 4373 4372
4 4272 4273 4374 4373
4 4273 4274 4375 4374
4 4274 4275 4376 4375
4 4275 4276 4377 4376
4 4276 4277 4378 4377
4 4277 4278 4379 4378
4 4278 4279 4380 4379
4 4279 4280 4381 4380
4 4280 4281 4382 4381
4 4281 4282 4383 4382
4 4282 4283 4384 4383
4 4283 4284 4385 4384
4 4284 4285 4386 4385
4 4285 4286 4387 4386
4 4286 4287 4388 4387
4 4287 4288 4389 4388
4 4288 4289 4390 4389
4 4289 4290 4391 4390
4 4290 4291 4392 4391
4 4291 4292 4393 4392
4 4292 4293 4394 4393
4 4293 4294 4395 4394
4 4294 4295 4396 4395
4 4295 4296 4397 4396
4 4296 4297 4398 4397
4 4297 4298 4399 4398
4 4298 4299 4400 4399
4 4299 4300 4401 4400
4 4300 4301 4402 4401
4 4301 4302 4403 4402
4 4302 4303 4404 4403
4 4303 4304 4405 4404
4 4304 4305 4406 4405
4 4305 4306 4407 4406
4 4306 4307 4408 4407
4 4307 4308 4409 4408
4 4308 4309 4410 4409
4 4309 4310 4411 4410
4 4310 4311 4412 4411
4 4311 4312 4413 4412
4 4312 4313 4414 4413
4 4313 4314 4415 4414
4 4314 4315 4416 4415
4 4315 4316 4417 4416
4 4316 4317 4418 4417
4 4317 4318 4419 4418
4 4318 4319 4420 4419
4 4319 4320 4421 4420
4 4320 4321 4422 4421
4 4321 4322 4423 4422
4 4322 4323 4424 4423
4 4323 4324 4425 4424
4 4324 4325 4426 4425
4 4325 4326 4427 4426
4 4326 4327 4428 4427
4 4327 4328 4429 4428
4 4328 4329 4430 4429
4 4329 4330 4431 4430
4 4330 4331 4432 4431
4 4331 4332 4433 4432
4 4332 4333 4434 4433
4 4333 4334 4435 4434
4 4334 4335 4436 4435
4 4335 4336 4437 4436
4 4336 4337 4438 4437
4 4337 4338 4439 4438
4 4338 4339 4440 4439
4 4339 4340 4441 4440
4 4340 4341 4442 4441
4 4341 4342 4443 4442
4 4343 4344 4445 4444
4 4344 4345 4446 4445
4 4345 4346 4447 4446
4 4346 4347 4448 4447
4 4347 4348 4449 4448
4 4348 4349 4450 4449
4 4349 4350 4451 4450
4 4350 4351 4452 4451
4 4351 4352 4453 4452
4 4352 4353 4454 4453
4 4353 4354 4455 4454
4 4354 4355 4456 4455
4 4355 4356 4457 4456
4 4356 4357 4458 4457
4 4357 4358 4459 4458
4 4358 4359 4460 4459
4 4359 4360 4461 4460
4 4360 4361 4462 4461
4 4361 4362 4463 4462
4 4362 4363 4464 4463
4 4363 4364 4465 4464
4 4364 4365 4466 4465
4 4365 4366 4467 4466
4 4366 4367 4468 4467
4 4367 4368 4469 4468
4 4368 4369 4470 4469
4 4369 4370 4471 4470
4 4370 4371 4472 4471
4 4371 4372 4473 4472
4 4372 4373 4474 4473
4 4373 4374 4475 4474
4 4374 4375 4476 4475
4 4375 4376 4477 4476
4 4376 4377 4478 4477
4 4377 4378 4479 4478
4 4378 4379 4480 4479
4 4379 4380 4481 4480
4 4380 4381 4482 4481
4 4381 4382 4483 4482
4 4382 4383 4484 4483
4 4383 4384 4485 4484
4 4384 4385 4486 4485
4 4385 4386 4487 4486
4 4386 4387 4488 4487
4 4387 4388 4489 4488
4 4388 4389 4490 4489
4 4389 4390 4491 4490
4 4390 4391 4492 4491
4 4391 4392 4493 4492
4 4392 4393 4494 4493
4 4393 4394 4495 4494
4 4394 4395 4496 4495
4 4395 4396 4497 4496
4 4396 4397 4498 4497
4 4397 4398 4499 4498
4 4398 4399 4500 4499
4 4399 4400 4501 4500
4 4400 4401 4502 4501
4 4401 4402 4503 4502
4 4402 4403 4504 4503
4 4403 4404 4505 4504
4 4404 4405 4506 4505
4 4405 4406 4507 4506
4 4406 4407 4508 4507
4 4407 4408 4509 4508
4 4408 4409 4510 4509
4 4409 4410 4511 4510
4 4410 4411 4512 4511
4 4411 4412 4513 4512
4 4412 4413 4514 4513
4 4413 4414 4515 4514
4 4414 4415 4516 4515
4 4415 4416 4517 4516
4 4416 4417 4518 4517
4 4417 4418 4519 4518
4 4418 4419 4520 4519
4 4419 4420 4521 4520
4 4420 4421 4522 4521
4 4421 4422 4523 4522
4 4422 4423 4524 4523
4 4423 4424 4525 4524
4 4424 4425 4526 4525
4 4425 4426 4527 4526
4 4426 4427 4528 4527
4 4427 4428 4529 4528
4 4428 4429 4530 4529
4 4429 4430 4531 4530
4 4430 4431 4532 4531
4 4431 4432 4533 4532
4 4432 4433 4534 4533
4 4433 4434 4535 4534
4 4434 4435 4536 4535
4 4435 4436 4537 4536
4 4436 4437 4538 4537
4 4437 4438 4539 4538
4 4438 4439 4540 4539
4 4439 4440 4541 4540
4 4440 4441 4542 4541
4 4441 4442 4543 4542
4 4442 4443 4544 4543
4 4444 4445 4546 4545
4 4445 4446 4547 4546
4 4446 4447 4548 4547
4 4447 4448 4549 4548
4 4448 4449 4550 4549
4 4449 4450 4551 4550
4 4450 4451 4552 4551
4 4451 4452 4553 4552
4 4452 4453 4554 4553
4 4453 4454 4555 4554
4 4454 4455 4556 4555
4 4455 4456 4557 4556
4 4456 4457 4558 4557
4 4457 4458 4559 4558
4 4458 4459 4560 4559
4 4459 4460 4561 4560
4 4460 4461 4562 4561
4 4461 4462 4563 4562
4 4462 4463 4564 4563
4 4463 4464 4565 4564
4 4464 4465 4566 4565
4 4465 4466 4567 4566
4 4466 4467 4568 4567
4 4467 4468 4569 4568
4 4468 4469 4570 4569
4 4469 4470 4571 4570
4 4470 4471 4572 4571
4 4471 4472 4573 4572
4 4472 4473 4574 4573
4 4473 4474 4575 4574
4 4474 4475 4576 4575
4 4475 4476 4577 4576
4 4476 4477 4578 4577
4 4477 4478 4579 4578
4 4478 4479 4580 4579
4 4479 4480 4581 4580
4 4480 4481 4582 4581
4 4481 4482 4583 4582
4 4482 4483 4584 4583
4 4483 4484 4585 4584
4 4484 4485 4586 4585
4 4485 4486 4587 4586
4 4486 4487 4588 4587
4 4487 4488 4589 4588
4 4488 4489 4590 4589
4 4489 4490 4591 4590
4 4490 4491 4592 4591
4 4491 4492 4593 4592
4 4492 4493 4594 4593
4 4493 4494 4595 4594
4 4494 4495 4596 4595
4 4495 4496 4597 4596
4 4496 4497 4598 4597
4 4497 4498 4599 4598
4 4498 4499 4600 4599
4 4499 4500 4601 4600
4 4500 4501 4602 4601
4 4501 4502 4603 4602
4 4502 4503 4604 4603
4 4503 4504 4605 4604
4 4504 4505 4606 4605
4 4505 4506 4607 4606
4 4506 4507 4608 4607
4 4507 4508 4609 4608
4 4508 4509 4610 4609
4 4509 4510 4611 4610
4 4510 4511 4612 4611
4 4511 4512 4613 4612
4 4512 4513 4614 4613
4 4513 4514 4615 4614
4 4514 4515 4616 4615
4 4515 4516 4617 4616
4 4516 4517 4618 4617
4 4517 4518 4619 4618
4 4518 4519 4620 4619
4 4519 4520 4621 4620
4 4520 4521 4622 4621
4 4521 4522 4623 4622
4 4522 4523 4624 4623
4 4523 4524 4625 4624
4 4524 4525 4626 4625
4 4525 4526 4627 4626
4 4526 4527 4628 4627
4 4527 4528 4629 4628
4 4528 4529 4630 4629
4 4529 4530 4631 4630
4 4530 4531 4632 4631
4 4531 4532 4633 4632
4 4532 4533 4634 4633
4 4533 4534 4635 4634
4 4534 4535 4636 4635
4 4535 4536 4637 4636
4 4536 4537 4638 4637
4 4537 4538 4639 4638
4 4538 4539 4640 4639
4 4539 4540 4641 4640
4 4540 4541 4642 4641
4 4541 4542 4643 4642
4 4542 4543 4644 4643
4 4543 4544 4645 4644
4 4545 4546 4647 4646
4 4546 4547 4648 4647
4 4547 4548 4649 4648
4 4548 4549 4650 4649
4 4549 4550 4651 4650
4 4550 4551 4652 4651
4 4551 4552 4653 4652
4 4552 4553 4654 4653
4 4553 4554 4655 4654
4 4554 4555 4656 4655
4 4555 4556 4657 4656
4 4556 4557 4658 4657
4 4557 4558 4659 4658
4 4558 4559 4660 4659
4 4559 4560 4661 4660
4 4560 4561 4662 4661
4 4561 4562 4663 4662
4 4562 4563 4664 4663
4 4563 4564 4665 4664
4 4564 4565 4666 4665
4 4565 4566 4667 4666
4 4566 4567 4668 4667
4 4567 4568 4669 4668
4 4568 4569 4670 4669
4 4569 4570 4671 4670
4 4570 4571 4672 4671
4 4571 4572 4673 4672
4 4572 4573 4674 4673
4 4573 4574 4675 4674
4 4574 4575 4676 4675
4 4575 4576 4677 4676
4 4576 4577 4678 4677
4 4577 4578 4679 4678
4 4578 4579 4680 4679
4 4579 4580 4681 4680
4 4580 4581 4682 4681
4 4581 4582 4683 4682
4 4582 4583 4684 4683
4 4583 4584 4685 4684
4 4584 4585 4686 4685
4 4585 4586 4687 4686
4 4586 4587 4688 4687
4 4587 4588 4689 4688
4 4588 4589 4690 4689
4 4589 4590 4691 4690
4 4590 4591 4692 4691
4 4591 4592 4693 4692
4 4592 4593 4694 4693
4 4593 4594 4695 4694
4 4594 4595 4696 4695
4 4595 4596 4697 4696
4 4596 4597 4698 4697
4 4597 4598 4699 4698
4 4598 4599 4700 4699
4 4599 4600 4701 4700
4 4600 4601 4702 4701
4 4601 4602 4703 4702
4 4602 4603 4704 4703
4 4603 4604 4705 4704
4 4604 4605 4706 4705
4 4605 4606 4707 4706
4 4606 4607 4708 4707
4 4607 4608 4709 4708
4 4608 4609 4710 4709
4 4609 4610 4711 4710
4 4610 4611 4712 4711
4 4611 4612 4713 4712
4 4612 4613 4714 4713
4 4613 4614 4715 4714
4 4614 4615 4716 4715
4 4615 4616 4717 4716
4 4616 4617 4718 4717
4 4617 4618 4719 4718
4 4618 4619 4720 4719
4 4619 4620 4721 4720
4 4620 4621 4722 4721
4 4621 4622 4723 4722
4 4622 4623 4724 4723
4 4623 4624 4725 4724
4 4624 4625 4726 4725
4 4625 4626 4727 4726
4 4626 4627 4728 4727
4 4627 4628 4729 4728
4 4628 4629 4730 4729
4 4629 4630 4731 4730
4 4630 4631 4732 4731
4 4631 4632 4733 4732
4 4632 4633 4734 4733
4 4633 4634 4735 4734
4 4634 4635 4736 4735
4 4635 4636 4737 4736
4 4636 4637 4738 4737
4 4637 4638 4739 4738
4 4638 4639 4740 4739
4 4639 4640 4741 4740
4 4640 4641 4742 4741
4 4641 4642 4743 4742
4 4642 4643 4744 4743
4 4643 4644 4745 4744
4 4644 4645 4746 4745
4 4646 4647 4748 4747
4 4647 4648 4749 4748
4 4648 4649 4750 4749
4 4649 4650 4751 4750
4 4650 4651 4752 4751
4 4651 4652 4753 4752
4 4652 4653 4754 4753
4 4653 4654 4755 4754
4 4654 4655 4756 4755
4 4655 4656 4757 4756
4 4656 4657 4758 4757
4 4657 4658 4759 4758
4 4658 4659 4760 4759
4 4659 4660 4761 4760
4 4660 4661 4762 4761
4 4661 4662 4763 4762
4 4662 4663 4764 4763
4 4663 4664 4765 4764
4 4664 4665 4766 4765
4 4665 4666 4767 4766
4 4666 4667 4768 4767
4 4667 4668 4769 4768
4 4668 4669 4770 4769
4 4669 4670 4771 4770
4 4670 4671 4772 4771
4 4671 4672 4773 4772
4 4672 4673 4774 4773
4 4673 4674 4775 4774
4 4674 4675 4776 4775
4 4675 4676 4777 4776
4 4676 4677 4778 4777
4 4677 4678 4779 4778
4 4678 4679 4780 4779
4 4679 4680 4781 4780
4 4680 4681 4782 4781
4 4681 4682 4783 4782
4 4682 4683 4784 4783
4 4683 4684 4785 4784
4 4684 4685 4786 4785
4 4685 4686 4787 4786
4 4686 4687 4788 4787
4 4687 4688 4789 4788
4 4688 4689 4790 4789
4 4689 4690 4791 4790
4 4690 4691 4792 4791
4 4691 4692 4793 4792
4 4692 4693 4794 4793
4 4693 4694 4795 4794
4 4694 4695 4796 4795
4 4695 4696 4797 4796
4 4696 4697 4798 4797
4 4697 4698 4799 4798
4 4698 4699 4800 4799
4 4699 4700 4801 4800
4 4700 4701 4802 4801
4 4701 4702 4803 4802
4 4702 4703 4804 4803
4 4703 4704 4805 4804
4 4704 4705 4806 4805
4 4705 4706 4807 4806
4 4706 4707 4808 4807
4 4707 4708 4809 4808
4 4708 4709 4810 4809
4 4709 4710 4811 4810
4 4710 4711 4812 4811
4 4711 4712 4813 4812
4 4712 4713 4814 4813
4 4713 4714 4815 4814
4 4714 4715 4816 4815
4 4715 4716 4817 4816
4 4716 4717 4818 4817
4 4717 4718 4819 4818
4 4718 4719 4820 4819
4 4719 4720 4821 4820
4 4720 4721 4822 4821
4 4721 4722 4823 4822
4 4722 4723 4824 4823
4 4723 4724 4825 4824
4 4724 4725 4826 4825
4 4725 4726 4827 4826
4 4726 4727 4828 4827
4 4727 4728 4829 4828
4 4728 4729 4830 4829
4 4729 4730 4831 4830
4 4730 4731 4832 4831
4 4731 4732 4833 4832
4 4732 4733 4834 4833
4 4733 4734 4835 4834
4 4734 4735 4836 4835
4 4735 4736 4837 4836
4 4736 4737 4838 4837
4 4737 4738 4839 4838
4 4738 4739 4840 4839
4 4739 4740 4841 4840
4 4740 4741 4842 4841
4 4741 4742 4843 4842
4 4742 4743 4844 4843
4 4743 4744 4845 4844
4 4744 4745 4846 4845
4 4745 4746 4847 4846
4 4747 4748 4849 4848
4 4748 4749 4850 4849
4 4749 4750 4851 4850
4 4750 4751 4852 4851
4 4751 4752 4853 4852
4 4752 4753 4854 4853
4 4753 4754 4855 4854
4 4754 4755 4856 4855
4 4755 4756 4857 4856
4 4756 4757 4858 4857
4 4757 4758 4859 4858
4 4758 4759 4860 4859
4 4759 4760 4861 4860
4 4760 4761 4862 4861
4 4761 4762 4863 4862
4 4762 4763 4864 4863
4 4763 4764 4865 4864
4 4764 4765 4866 4865
4 4765 4766 4867 4866
4 4766 4767 4868 4867
4 4767 4768 4869 4868
4 4768 4769 4870 4869
4 4769 4770 4871 4870
4 4770 4771 4872 4871
4 4771 4772 4873 4872
4 4772 4773 4874 4873
4 4773 4774 4875 4874
4 4774 4775 4876 4875
4 4775 4776 4877 4876
4 4776 4777 4878 4877
4 4777 4778 4879 4878
4 4778 4779 4880 4879
4 4779 4780 4881 4880
4 4780 4781 4882 4881
4 4781 4782 4883 4882
4 4782 4783 4884 4883
4 4783 4784 4885 4884
4 4784 4785 4886 4885
4 4785 4786 4887 4886
4 4786 4787 4888 4887
4 4787 4788 4889 4888
4 4788 4789 4890 4889
4 4789 4790 4891 4890
4 4790 4791 4892 4891
4 4791 4792 4893 4892
4 4792 4793 4894 4893
4 4793 4794 4895 4894
4 4794 4795 4896 4895
4 4795 4796 4897 4896
4 4796 4797 4898 4897
4 4797 4798 4899 4898
4 4798 4799 4900 4899
4 4799 4800 4901 4900
4 4800 4801 4902 4901
4 4801 4802 4903 4902
4 4802 4803 4904 4903
4 4803 4804 4905 4904
4 4804 4805 4906 4905
4 4805 4806 4907 4906
4 4806 4807 4908 4907
4 4807 4808 4909 4908
4 4808 4809 4910 4909
4 4809 4810 4911 4910
4 4810 4811 4912 4911
4 4811 4812 4913 4912
4 4812 4813 4914 4913
4 4813 4814 4915 4914
4 4814 4815 4916 4915
4 4815 4816 4917 4916
4 4816 4817 4918 4917
4 4817 4818 4919 4918
4 4818 4819 4920 4919
4 4819 4820 4921 4920
4 4820 4821 4922 4921
4 4821 4822 4923 4922
4 4822 4823 4924 4923
4 4823 4824 4925 4924
4 4824 4825 4926 4925
4 4825 4826 4927 4926
4 4826 4827 4928 4927
4 4827 4828 4929 4928
4 4828 4829 4930 4929
4 4829 4830 4931 4930
4 4830 4831 4932 4931
4 4831 4832 4933 4932
4 4832 4833 4934 4933
4 4833 4834 4935 4934
4 4834 4835 4936 4935
4 4835 4836 4937 4936
4 4836 4837 4938 4937
4 4837 4838 4939 4938
4 4838 4839 4940 4939
4 4839 4840 4941 4940
4 4840 4841 4942 4941
4 4841 4842 4943 4942
4 4842 4843 4944 4943
4 4843 4844 4945 4944
4 4844 4845 4946 4945
4 4845 4846 4947 4946
4 4846 4847 4948 4947
4 4848 4849 4950 4949
4 4849 4850 4951 4950
4 4850 4851 4952 4951
4 4851 4852 4953 4952
4 4852 4853 4954 4953
4 4853 4854 4955 4954
4 4854 4855 4956 4955
4 4855 4856 4957 4956
4 4856 4857 4958 4957
4 4857 4858 4959 4958
4 4858 4859 4960 4959
4 4859 4860 4961 4960
4 4860 4861 4962 4961
4 4861 4862 4963 4962
4 4862 4863 4964 4963
4 4863 4864 4965 4964
4 4864 4865 4966 4965
4 4865 4866 4967 4966
4 4866 4867 4968 4967
4 4867 4868 4969 4968
4 4868 4869 4970 4969
4 4869 4870 4971 4970
4 4870 4871 4972 4971
4 4871 4872 4973 4972
4 4872 4873 4974 4973
4 4873 4874 4975 4974
4 4874 4875 4976 4975
4 4875 4876 4977 4976
4 4876 4877 4978 4977
4 4877 4878 4979 4978
4 4878 4879 4980 4979
4 4879 4880 4981 4980
4 4880 4881 4982 4981
4 4881 4882 4983 4982
4 4882 4883 4984 4983
4 4883 4884 4985 4984
4 4884 4885 4986 4985
4 4885 4886 4987 4986
4 4886 4887 4988 4987
4 4887 4888 4989 4988
4 4888 4889 4990 4989
4 4889 4890 4991 4990
4 4890 4891 4992 4991
4 4891 4892 4993 4992
4 4892 4893 4994 4993
4 4893 4894 4995 4994
4 4894 4895 4996 4995
4 4895 4896 4997 4996
4 4896 4897 4998 4997
4 4897 4898 4999 4998
4 4898 4899 5000 4999
4 4899 4900 5001 5000
4 4900 4901 5002 5001
4 4901 4902 5003 5002
4 4902 4903 5004 5003
4 4903 4904 5005 5004
4 4904 4905 5006 5005
4 4905 4906 5007 5006
4 4906 4907 5008 5007
4 4907 4908 5009 5008
4 4908 4909 5010 5009
4 4909 4910 5011 5010
4 4910 4911 5012 5011
4 4911 4912 5013 5012
4 4912 4913 5014 5013
4 4913 4914 5015 5014
4 4914 4915 5016 5015
4 4915 4916 5017 5016
4 4916 4917 5018 5017
4 4917 4918 5019 5018
4 4918 4919 5020 5019
4 4919 4920 5021 5020
4 4920 4921 5022 5021
4 4921 4922 5023 5022
4 4922 4923 5024 5023
4 4923 4924 5025 5024
4 4924 4925 5026 5025
4 4925 4926 5027 5026
4 4926 4927 5028 5027
4 4927 4928 5029 5028
4 4928 4929 5030 5029
4 4929 4930 5031 5030
4 4930 4931 5032 5031
4 4931 4932 5033 5032
4 4932 4933 5034 5033
4 4933 4934 5035 5034
4 4934 4935 5036 5035
4 4935 4936 5037 5036
4 4936 4937 5038 5037
4 4937 4938 5039 5038
4 4938 4939 5040 5039
4 4939 4940 5041 5040
4 4940 4941 5042 5041
4 4941 4942 5043 5042
4 4942 4943 5044 5043
4 4943 4944 5045 5044
4 4944 4945 5046 5045
4 4945 4946 5047 5046
4 4946 4947 5048 5047
4 4947 4948 5049 5048
4 4949 4950 5051 5050
4 4950 4951 5052 5051
4 4951 4952 5053 5052
4 4952 4953 5054 5053
4 4953 4954 5055 5054
4 4954 4955 5056 5055
4 4955 4956 5057 5056
4 4956 4957 5058 5057
4 4957 4958 5059 5058
4 4958 4959 5060 5059
4 4959 4960 5061 5060
4 4960 4961 5062 5061
4 4961 4962 5063 5062
4 4962 4963 5064 5063
4 4963 4964 5065 5064
4 4964 4965 5066 5065
4 4965 4966 5067 5066
4 4966 4967 5068 5067
4 4967 4968 5069 5068
4 4968 4969 5070 5069
4 4969 4970 5071 5070
4 4970 4971 5072 5071
4 4971 4972 5073 5072
4 4972 4973 5074 5073
4 4973 4974 5075 5074
4 4974 4975 5076 5075
4 4975 4976 5077 5076
4 4976 4977 5078 5077
4 4977 4978 5079 5078
4 4978 4979 5080 5079
4 4979 4980 5081 5080
4 4980 4981 5082 5081
4 4981 4982 5083 5082
4 4982 4983 5084 5083
4 4983 4984 5085 5084
4 4984 4985 5086 5085
4 4985 4986 5087 5086
4 4986 4987 5088 5087
4 4987 4988 5089 5088
4 4988 4989 5090 5089
4 4989 4990 5091 5090
4 4990 4991 5092 5091
4 4991 4992 5093 5092
4 4992 4993 5094 5093
4 4993 4994 5095 5094
4 4994 4995 5096 5095
4 4995 4996 5097 5096
4 4996 4997 5098 5097
4 4997 4998 5099 5098
4 4998 4999 5100 5099
4 4999 5000 5101 5100
4 5000 5001 5102 5101
4 5001 5002 5103 5102
4 5002 5003 5104 5103
4 5003 5004 5105 5104
4 5004 5005 5106 5105
4 5005 5006 5107 5106
4 5006 5007 5108 5107
4 5007 5008 5109 5108
4 5008 5009 5110 5109
4 5009 5010 5111 5110
4 5010 5011 5112 5111
4 5011 5012 5113 5112
4 5012 5013 5114 5113
4 5013 5014 5115 5114
4 5014 5015 5116 5115
4 5015 5016 5117 5116
4 5016 5017 5118 5117
4 5017 5018 5119 5118
4 5018 5019 5120 5119
4 5019 5020 5121 5120
4 5020 5021 5122 5121
4 5021 5022 5123 5122
4 5022 5023 5124 5123
4 5023 5024 5125 5124
4 5024 5025 5126 5125
4 5025 5026 5127 5126
4 5026 5027 5128 5127
4 5027 5028 5129 5128
4 5028 5029 5130 5129
4 5029 5030 5131 5130
4 5030 5031 5132 5131
4 5031 5032 5133 5132
4 5032 5033 5134 5133
4 5033 5034 5135 5134
4 5034 5035 5136 5135
4 5035 5036 5137 5136
4 5036 5037 5138 5137
4 5037 5038 5139 5138
4 5038 5039 5140 5139
4 5039 5040 5141 5140
4 5040 5041 5142 5141
4 5041 5042 5143 5142
4 5042 5043 5144 5143
4 5043 5044 5145 5144
4 5044 5045 5146 5145
4 5045 5046 5147 5146
4 5046 5047 5148 5147
4 5047 5048 5149 5148
4 5048 5049 5150 5149
4 5050 5051 5152 5151
4 5051 5052 5153 5152
4 5052 5053 5154 5153
4 5053 5054 5155 5154
4 5054 5055 5156 5155
4 5055 5056 5157 5156
4 5056 5057 5158 5157
4 5057 5058 5159 5158
4 5058 5059 5160 5159
4 5059 5060 5161 5160
4 5060 5061 5162 5161
4 5061 5062 5163 5162
4 5062 5063 5164 5163
4 5063 5064 5165 5164
4 5064 5065 5166 5165
4 5065 5066 5167 5166
4 5066 5067 5168 5167
4 5067 5068 5169 5168
4 5068 5069 5170 5169
4 5069 5070 5171 5170
4 5070 5071 5172 5171
4 5071 5072 5173 5172
4 5072 5073 5174 5173
4 5073 5074 5175 5174
4 5074 5075 5176 5175
4 5075 5076 5177 5176
4 5076 5077 5178 5177
4 5077 5078 5179 5178
4 5078 5079 5180 5179
4 5079 5080 5181 5180
4 5080 5081 5182 5181
4 5081 5082 5183 5182
4 5082 5083 5184 5183
4 5083 5084 5185 5184
4 5084 5085 5186 5185
4 5085 5086 5187 5186
4 5086 5087 5188 5187
4 5087 5088 5189 5188
4 5088 5089 5190 5189
4 5089 5090 5191 5190
4 5090 5091 5192 5191
4 5091 5092 5193 5192
4 5092 5093 5194 5193
4 5093 5094 5195 5194
4 5094 5095 5196 5195
4 5095 5096 5197 5196
4 5096 5097 5198 5197
4 5097 5098 5199 5198
4 5098 5099 5200 5199
4 5099 5100 5201 5200
4 5100 5101 5202 5201
4 5101 5102 5203 5202
4 5102 5103 5204 5203
4 5103 5104 5205 5204
4 5104 5105 5206 5205
4 5105 5106 5207 5206
4 5106 5107 5208 5207
4 5107 5108 5209 5208
4 5108 5109 5210 5209
4 5109 5110 5211 5210
4 5110 5111 5212 5211
4 5111 5112 5213 5212
4 5112 5113 5214 5213
4 5113 5114 5215 5214
4 5114 5115 5216 5215
4 5115 5116 5217 5216
4 5116 5117 5218 5217
4 5117 5118 5219 5218
4 5118 5119 5220 5219
4 5119 5120 5221 5220
4 5120 5121 5222 5221
4 5121 5122 5223 5222
4 5122 5123 5224 5223
4 5123 5124 5225 5224
4 5124 5125 5226 5225
4 5125 5126 5227 5226
4 5126 5127 5228 5227
4 5127 5128 5229 5228
4 5128 5129 5230 5229
4 5129 5130 5231 5230
4 5130 5131 5232 5231
4 5131 5132 5233 5232
4 5132 5133 5234 5233
4 5133 5134 5235 5234
4 5134 5135 5236 5235
4 5135 5136 5237 5236
4 5136 5137 5238 5237
4 5137 5138 5239 5238
4 5138 5139 5240 5239
4 5139 5140 5241 5240
4 5140 5141 5242 5241
4 5141 5142 5243 5242
4 5142 5143 5244 5243
4 5143 5144 5245 5244
4 5144 5145 5246 5245
4 5145 5146 5247 5246
4 5146 5147 5248 5247
4 5147 5148 5249 5248
4 5148 5149 5250 5249
4 5149 5150 5251 5250
4 5151 5152 5253 5252
4 5152 5153 5254 5253
4 5153 5154 5255 5254
4 5154 5155 5256 5255
4 5155 5156 5257 5256
4 5156 5157 5258 5257
4 5157 5158 5259 5258
4 5158 5159 5260 5259
4 5159 5160 5261 5260
4 5160 5161 5262 5261
4 5161 5162 5263 5262
4 5162 5163 5264 5263
4 5163 5164 5265 5264
4 5164 5165 5266 5265
4 5165 5166 5267 5266
4 5166 5167 5268 5267
4 5167 5168 5269 5268
4 5168 5169 5270 5269
4 5169 5170 5271 5270
4 5170 5171 5272 5271
4 5171 5172 5273 5272
4 5172 5173 5274 5273
4 5173 5174 5275 5274
4 5174 5175 5276 5275
4 5175 5176 5277 5276
4 5176 5177 5278 5277
4 5177 5178 5279 5278
4 5178 5179 5280 5279
4 5179 5180 5281 5280
4 5180 5181 5282 5281
4 5181 5182 5283 5282
4 5182 5183 5284 5283
4 5183 5184 5285 5284
4 5184 5185 5286 5285
4 5185 5186 5287 5286
4 5186 5187 5288 5287
4 5187 5188 5289 5288
4 5188 5189 5290 5289
4 5189 5190 5291 5290
4 5190 5191 5292 5291
4 5191 5192 5293 5292
4 5192 5193 5294 5293
4 5193 5194 5295 5294
4 5194 5195 5296 5295
4 5195 5196 5297 5296
4 5196 5197 5298 5297
4 5197 5198 5299 5298
4 5198 5199 5300 5299
4 5199 5200 5301 5300
4 5200 5201 5302 5301
4 5201 5202 5303 5302
4 5202 5203 5304 5303
4 5203 5204 5305 5304
4 5204 5205 5306 5305
4 5205 5206 5307 5306
4 5206 5207 5308 5307
4 5207 5208 5309 5308
4 5208 5209 5310 5309
4 5209 5210 5311 5310
4 5210 5211 5312 5311
4 5211 5212 5313 5312
4 5212 5213 5314 5313
4 5213 5214 5315 5314
4 5214 5215 5316 5315
4 5215 5216 5317 5316
4 5216 5217 5318 5317
4 5217 5218 5319 5318
4 5218 5219 5320 5319
4 5219 5220 5321 5320
4 5220 5221 5322 5321
4 5221 5222 5323 5322
4 5222 5223 5324 5323
4 5223 5224 5325 5324
4 5224 5225 5326 5325
4 5225 5226 5327 5326
4 5226 5227 5328 5327
4 5227 5228 5329 5328
4 5228 5229 5330 5329
4 5229 5230 5331 5330
4 5230 5231 5332 5331
4 5231 5232 5333 5332
4 5232 5233 5334 5333
4 5233 5234 5335 5334
4 5234 5235 5336 5335
4 5235 5236 5337 5336
4 5236 5237 5338 5337
4 5237 5238 5339 5338
4 5238 5239 5340 5339
4 5239 5240 5341 5340
4 5240 5241 5342 5341
4 5241 5242 5343 5342
4 5242 5243 5344 5343
4 5243 5244 5345 5344
4 5244 5245 5346 5345
4 5245 5246 5347 5346
4 5246 5247 5348 5347
4 5247 5248 5349 5348
4 5248 5249 5350 5349
4 5249 5250 5351 5350
4 5250 5251 5352 5351
4 5252 5253 5354 5353
4 5253 5254 5355 5354
4 5254 5255 5356 5355
4 5255 5256 5357 5356
4 5256 5257 5358 5357
4 5257 5258 5359 5358
4 5258 5259 5360 5359
4 5259 5260 5361 5360
4 5260 5261 5362 5361
4 5261 5262 5363 5362
4 5262 5263 5364 5363
4 5263 5264 5365 5364
4 5264 5265 5366 5365
4 5265 5266 5367 5366
4 5266 5267 5368 5367
4 5267 5268 5369 5368
4 5268 5269 5370 5369
4 5269 5270 5371 5370
4 5270 5271 5372 5371
4 5271 5272 5373 5372
4 5272 5273 5374 5373
4 5273 5274 5375 5374
4 5274 5275 5376 5375
4 5275 5276 5377 5376
4 5276 5277 5378 5377
4 5277 5278 5379 5378
4 5278 5279 5380 5379
4 5279 5280 5381 5380
4 5280 5281 5382 5381
4 5281 5282 5383 5382
4 5282 5283 5384 5383
4 5283 5284 5385 5384
4 5284 5285 5386 5385
4 5285 5286 5387 5386
4 5286 5287 5388 5387
4 5287 5288 5389 5388
4 5288 5289 5390 5389
4 5289 5290 5391 5390
4 5290 5291 5392 5391
4 5291 5292 5393 5392
4 5292 5293 5394 5393
4 5293 5294 5395 5394
4 5294 5295 5396 5395
4 5295 5296 5397 5396
4 5296 5297 5398 5397
4 5297 5298 5399 5398
4 5298 5299 5400 5399
4 5299 5300 5401 5400
4 5300 5301 5402 5401
4 5301 5302 5403 5402
4 5302 5303 5404 5403
4 5303 5304 5405 5404
4 5304 5305 5406 5405
4 5305 5306 5407 5406
4 5306 5307 5408 5407
4 5307 5308 5409 5408
4 5308 5309 5410 5409
4 5309 5310 5411 5410
4 5310 5311 5412 5411
4 5311 5312 5413 5412
4 5312 5313 5414 5413
4 5313 5314 5415 5414
4 5314 5315 5416 5415
4 5315 5316 5417 5416
4 5316 5317 5418 5417
4 5317 5318 5419 5418
4 5318 5319 5420 5419
4 5319 5320 5421 5420
4 5320 5321 5422 5421
4 5321 5322 5423 5422
4 5322 5323 5424 5423
4 5323 5324 5425 5424
4 5324 5325 5426 5425
4 5325 5326 5427 5426
4 5326 5327 5428 5427
4 5327 5328 5429 5428
4 5328 5329 5430 5429
4 5329 5330 5431 5430
4 5330 5331 5432 5431
4 5331 5332 5433 5432
4 5332 5333 5434 5433
4 5333 5334 5435 5434
4 5334 5335 5436 5435
4 5335 5336 5437 5436
4 5336 5337 5438 5437
4 5337 5338 5439 5438
4 5338 5339 5440 5439
4 5339 5340 5441 5440
4 5340 5341 5442 5441
4 5341 5342 5443 5442
4 5342 5343 5444 5443
4 5343 5344 5445 5444
4 5344 5345 5446 5445
4 5345 5346 5447 5446
4 5346 5347 5448 5447
4 5347 5348 5449 5448
4 5348 5349 5450 5449
4 5349 5350 5451 5450
4 5350 5351 5452 5451
4 5351 5352 5453 5452
4 5353 5354 5455 5454
4 5354 5355 5456 5455
4 5355 5356 5457 5456
4 5356 5357 5458 5457
4 5357 5358 5459 5458
4 5358 5359 5460 5459
4 5359 5360 5461 5460
4 5360 5361 5462 5461
4 5361 5362 5463 5462
4 5362 5363 5464 5463
4 5363 5364 5465 5464
4 5364 5365 5466 5465
4 5365 5366 5467 5466
4 5366 5367 5468 5467
4 5367 5368 5469 5468
4 5368 5369 5470 5469
4 5369 5370 5471 5470
4 5370 5371 5472 5471
4 5371 5372 5473 5472
4 5372 5373 5474 5473
4 5373 5374 5475 5474
4 5374 5375 5476 5475
4 5375 5376 5477 5476
4 5376 5377 5478 5477
4 5377 5378 5479 5478
4 5378 5379 5480 5479
4 5379 5380 5481 5480
4 5380 5381 5482 5481
4 5381 5382 5483 5482
4 5382 5383 5484 5483
4 5383 5384 5485 5484
4 5384 5385 5486 5485
4 5385 5386 5487 5486
4 5386 5387 5488 5487
4 5387 5388 5489 5488
4 5388 5389 5490 5489
4 5389 5390 5491 5490
4 5390 5391 5492 5491
4 5391 5392 5493 5492
4 5392 5393 5494 5493
4 5393 5394 5495 5494
4 5394 5395 5496 5495
4 5395 5396 5497 5496
4 5396 5397 5498 5497
4 5397 5398 5499 5498
4 5398 5399 5500 5499
4 5399 5400 5501 5500
4 5400 5401 5502 5501
4 5401 5402 5503 5502
4 5402 5403 5504 5503
4 5403 5404 5505 5504
4 5404 5405 5506 5505
4 5405 5406 5507 5506
4 5406 5407 5508 5507
4 5407 5408 5509 5508
4 5408 5409 5510 5509
4 5409 5410 5511 5510
4 5410 5411 5512 5511
4 5411 5412 5513 5512
4 5412 5413 5514 5513
4 5413 5414 5515 5514
4 5414 5415 5516 5515
4 5415 5416 5517 5516
4 5416 5417 5518 5517
4 5417 5418 5519 5518
4 5418 5419 5520 5519
4 5419 5420 5521 5520
4 5420 5421 5522 5521
4 5421 5422 5523 5522
4 5422 5423 5524 5523
4 5423 5424 5525 5524
4 5424 5425 5526 5525
4 5425 5426 5527 5526
4 5426 5427 5528 5527
4 5427 5428 5529 5528
4 5428 5429 5530 5529
4 5429 5430 5531 5530
4 5430 5431 5532 5531
4 5431 5432 5533 5532
4 5432 5433 5534 5533
4 5433 5434 5535 5534
4 5434 5435 5536 5535
4 5435 5436 5537 5536
4 5436 5437 5538 5537
4 5437 5438 5539 5538
4 5438 5439 5540 5539
4 5439 5440 5541 5540
4 5440 5441 5542 5541
4 5441 5442 5543 5542
4 5442 5443 5544 5543
4 5443 5444 5545 5544
4 5444 5445 5546 5545
4 5445 5446 5547 5546
4 5446 5447 5548 5547
4 5447 5448 5549 5548
4 5448 5449 5550 5549
4 5449 5450 5551 5550
4 5450 5451 5552 5551
4 5451 5452 5553 5552
4 5452 5453 5554 5553
4 5454 5455 5556 5555
4 5455 5456 5557 5556
4 5456 5457 5558 5557
4 5457 5458 5559 5558
4 5458 5459 5560 5559
4 5459 5460 5561 5560
4 5460 5461 5562 5561
4 5461 5462 5563 5562
4 5462 5463 5564 5563
4 5463 5464 5565 5564
4 5464 5465 5566 5565
4 5465 5466 5567 5566
4 5466 5467 5568 5567
4 5467 5468 5569 5568
4 5468 5469 5570 5569
4 5469 5470 5571 5570
4 5470 5471 5572 5571
4 5471 5472 5573 5572
4 5472 5473 5574 5573
4 5473 5474 5575 5574
4 5474 5475 5576 5575
4 5475 5476 5577 5576
4 5476 5477 5578 5577
4 5477 5478 5579 5578
4 5478 5479 5580 5579
4 5479 5480 5581 5580
4 5480 5481 5582 5581
4 5481 5482 5583 5582
4 5482 5483 5584 5583
4 5483 5484 5585 5584
4 5484 5485 5586 5585
4 5485 5486 5587 5586
4 5486 5487 5588 5587
4 5487 5488 5589 5588
4 5488 5489 5590 5589
4 5489 5490 5591 5590
4 5490 5491 5592 5591
4 5491 5492 5593 5592
4 5492 5493 5594 5593
4 5493 5494 5595 5594
4 5494 5495 5596 5595
4 5495 5496 5597 5596
4 5496 5497 5598 5597
4 5497 5498 5599 5598
4 5498 5499 5600 5599
4 5499 5500 5601 5600
4 5500 5501 5602 5601
4 5501 5502 5603 5602
4 5502 5503 5604 5603
4 5503 5504 5605 5604
4 5504 5505 5606 5605
4 5505 5506 5607 5606
4 5506 5507 5608 5607
4 5507 5508 5609 5608
4 5508 5509 5610 5609
4 5509 5510 5611 5610
4 5510 5511 5612 5611
4 5511 5512 5613 5612
4 5512 5513 5614 5613
4 5513 5514 5615 5614
4 5514 5515 5616 5615
4 5515 5516 5617 5616
4 5516 5517 5618 5617
4 5517 5518 5619 5618
4 5518 5519 5620 5619
4 5519 5520 5621 5620
4 5520 5521 5622 5621
4 5521 5522 5623 5622
4 5522 5523 5624 5623
4 5523 5524 5625 5624
4 5524 5525 5626 5625
4 5525 5526 5627 5626
4 5526 5527 5628 5627
4 5527 5528 5629 5628
4 5528 5529 5630 5629
4 5529 5530 5631 5630
4 5530 5531 5632 5631
4 5531 5532 5633 5632
4 5532 5533 5634 5633
4 5533 5534 5635 5634
4 5534 5535 5636 5635
4 5535 5536 5637 5636
4 5536 5537 5638 5637
4 5537 5538 5639 5638
4 5538 5539 5640 5639
4 5539 5540 5641 5640
4 5540 5541 5642 5641
4 5541 5542 5643 5642
4 5542 5543 5644 5643
4 5543 5544 5645 5644
4 5544 5545 5646 5645
4 5545 5546 5647 5646
4 5546 5547 5648 5647
4 5547 5548 5649 5648
4 5548 5549 5650 5649
4 5549 5550 5651 5650
4 5550 5551 5652 5651
4 5551 5552 5653 5652
4 5552 5553 5654 5653
4 5553 5554 5655 5654
4 5555 5556 5657 5656
4 5556 5557 5658 5657
4 5557 5558 5659 5658
4 5558 5559 5660 5659
4 5559 5560 5661 5660
4 5560 5561 5662 5661
4 5561 5562 5663 5662
4 5562 5563 5664 5663
4 5563 5564 5665 5664
4 5564 5565 5666 5665
4 5565 5566 5667 5666
4 5566 5567 5668 5667
4 5567 5568 5669 5668
4 5568 5569 5670 5669
4 5569 5570 5671 5670
4 5570 5571 5672 5671
4 5571 5572 5673 5672
4 5572 5573 5674 5673
4 5573 5574 5675 5674
4 5574 5575 5676 5675
4 5575 5576 5677 5676
4 5576 5577 5678 5677
4 5577 5578 5679 5678
4 5578 5579 5680 5679
4 5579 5580 5681 5680
4 5580 5581 5682 5681
4 5581 5582 5683 5682
4 5582 5583 5684 5683
4 5583 5584 5685 5684
4 5584 5585 5686 5685
4 5585 5586 5687 5686
4 5586 5587 5688 5687
4 5587 5588 5689 5688
4 5588 5589 5690 5689
4 5589 5590 5691 5690
4 5590 5591 5692 5691
4 5591 5592 5693 5692
4 5592 5593 5694 5693
4 5593 5594 5695 5694
4 5594 5595 5696 5695
4 5595 5596 5697 5696
4 5596 5597 5698 5697
4 5597 5598 5699 5698
4 5598 5599 5700 5699
4 5599 5600 5701 5700
4 5600 5601 5702 5701
4 5601 5602 5703 5702
4 5602 5603 5704 5703
4 5603 5604 5705 5704
4 5604 5605 5706 5705
4 5605 5606 5707 5706
4 5606 5607 5708 5707
4 5607 5608 5709 5708
4 5608 5609 5710 5709
4 5609 5610 5711 5710
4 5610 5611 5712 5711
4 5611 5612 5713 5712
4 5612 5613 5714 5713
4 5613 5614 5715 5714
4 5614 5615 5716 5715
4 5615 5616 5717 5716
4 5616 5617 5718 5717
4 5617 5618 5719 5718
4 5618 5619 5720 5719
4 5619 5620 5721 5720
4 5620 5621 5722 5721
4 5621 5622 5723 5722
4 5622 5623 5724 5723
4 5623 5624 5725 5724
4 5624 5625 5726 5725
4 5625 5626 5727 5726
4 5626 5627 5728 5727
4 5627 5628 5729 5728
4 5628 5629 5730 5729
4 5629 5630 5731 5730
4 5630 5631 5732 5731
4 5631 5632 5733 5732
4 5632 5633 5734 5733
4 5633 5634 5735 5734
4 5634 5635 5736 5735
4 5635 5636 5737 5736
4 5636 5637 5738 5737
4 5637 5638 5739 5738
4 5638 5639 5740 5739
4 5639 5640 5741 5740
4 5640 5641 5742 5741
4 5641 5642 5743 5742
4 5642 5643 5744 5743
4 5643 5644 5745 5744
4 5644 5645 5746 5745
4 5645 5646 5747 5746
4 5646 5647 5748 5747
4 5647 5648 5749 5748
4 5648 5649 5750 5749
4 5649 5650 5751 5750
4 5650 5651 5752 5751
4 5651 5652 5753 5752
4 5652 5653 5754 5753
4 5653 5654 5755 5754
4 5654 5655 5756 5755
4 5656 5657 5758 5757
4 5657 5658 5759 5758
4 5658 5659 5760 5759
4 5659 5660 5761 5760
4 5660 5661 5762 5761
4 5661 5662 5763 5762
4 5662 5663 5764 5763
4 5663 5664 5765 5764
4 5664 5665 5766 5765
4 5665 5666 5767 5766
4 5666 5667 5768 5767
4 5667 5668 5769 5768
4 5668 5669 5770 5769
4 5669 5670 5771 5770
4 5670 5671 5772 5771
4 5671 5672 5773 5772
4 5672 5673 5774 5773
4 5673 5674 5775 5774
4 5674 5675 5776 5775
4 5675 5676 5777 5776
4 5676 5677 5778 5777
4 5677 5678 5779 5778
4 5678 5679 5780 5779
4 5679 5680 5781 5780
4 5680 5681 5782 5781
4 5681 5682 5783 5782
4 5682 5683 5784 5783
4 5683 5684 5785 5784
4 5684 5685 5786 5785
4 5685 5686 5787 5786
4 5686 5687 5788 5787
4 5687 5688 5789 5788
4 5688 5689 5790 5789
4 5689 5690 5791 5790
4 5690 5691 5792 5791
4 5691 5692 5793 5792
4 5692 5693 5794 5793
4 5693 5694 5795 5794
4 5694 5695 5796 5795
4 5695 5696 5797 5796
4 5696 5697 5798 5797
4 5697 5698 5799 5798
4 5698 5699 5800 5799
4 5699 5700 5801 5800
4 5700 5701 5802 5801
4 5701 5702 5803 5802
4 5702 5703 5804 5803
4 5703 5704 5805 5804
4 5704 5705 5806 5805
4 5705 5706 5807 5806
4 5706 5707 5808 5807
4 5707 5708 5809 5808
4 5708 5709 5810 5809
4 5709 5710 5811 5810
4 5710 5711 5812 5811
4 5711 5712 5813 5812
4 5712 5713 5814 5813
4 5713 5714 5815 5814
4 5714 5715 5816 5815
4 5715 5716 5817 5816
4 5716 5717 5818 5817
4 5717 5718 5819 5818
4 5718 5719 5820 5819
4 5719 5720 5821 5820
4 5720 5721 5822 5821
4 5721 5722 5823 5822
4 5722 5723 5824 5823
4 5723 5724 5825 5824
4 5724 5725 5826 5825
4 5725 5726 5827 5826
4 5726 5727 5828 5827
4 5727 5728 5829 5828
4 5728 5729 5830 5829
4 5729 5730 5831 5830
4 5730 5731 5832 5831
4 5731 5732 5833 5832
4 5732 5733 5834 5833
4 5733 5734 5835 5834
4 5734 5735 5836 5835
4 5735 5736 5837 5836
4 5736 5737 5838 5837
4 5737 5738 5839 5838
4 5738 5739 5840 5839
4 5739 5740 5841 5840
4 5740 5741 5842 5841
4 5741 5742 5843 5842
4 5742 5743 5844 5843
4 5743 5744 5845 5844
4 5744 5745 5846 5845
4 5745 5746 5847 5846
4 5746 5747 5848 5847
4 5747 5748 5849 5848
4 5748 5749 5850 5849
4 5749 5750 5851 5850
4 5750 5751 5852 5851
4 5751 5752 5853 5852
4 5752 5753 5854 5853
4 5753 5754 5855 5854
4 5754 5755 5856 5855
4 5755 5756 5857 5856
4 5757 5758 5859 5858
4 5758 5759 5860 5859
4 5759 5760 5861 5860
4 5760 5761 5862 5861
4 5761 5762 5863 5862
4 5762 5763 5864 5863
4 5763 5764 5865 5864
4 5764 5765 5866 5865
4 5765 5766 5867 5866
4 5766 5767 5868 5867
4 5767 5768 5869 5868
4 5768 5769 5870 5869
4 5769 5770 5871 5870
4 5770 5771 5872 5871
4 5771 5772 5873 5872
4 5772 5773 5874 5873
4 5773 5774 5875 5874
4 5774 5775 5876 5875
4 5775 5776 5877 5876
4 5776 5777 5878 5877
4 5777 5778 5879 5878
4 5778 5779 5880 5879
4 5779 5780 5881 5880
4 5780 5781 5882 5881
4 5781 5782 5883 5882
4 5782 5783 5884 5883
4 5783 5784 5885 5884
4 5784 5785 5886 5885
4 5785 5786 5887 5886
4 5786 5787 5888 5887
4 5787 5788 5889 5888
4 5788 5789 5890 5889
4 5789 5790 5891 5890
4 5790 5791 5892 5891
4 5791 5792 5893 5892
4 5792 5793 5894 5893
4 5793 5794 5895 5894
4 5794 5795 5896 5895
4 5795 5796 5897 5896
4 5796 5797 5898 5897
4 5797 5798 5899 5898
4 5798 5799 5900 5899
4 5799 5800 5901 5900
4 5800 5801 5902 5901
4 5801 5802 5903 5902
4 5802 5803 5904 5903
4 5803 5804 5905 5904
4 5804 5805 5906 5905
4 5805 5806 5907 5906
4 5806 5807 5908 5907
4 5807 5808 5909 5908
4 5808 5809 5910 5909
4 5809 5810 5911 5910
4 5810 5811 5912 5911
4 5811 5812 5913 5912
4 5812 5813 5914 5913
4 5813 5814 5915 5914
4 5814 5815 5916 5915
4 5815 5816 5917 5916
4 5816 5817 5918 5917
4 5817 5818 5919 5918
4 5818 5819 5920 5919
4 5819 5820 5921 5920
4 5820 5821 5922 5921
4 5821 5822 5923 5922
4 5822 5823 5924 5923
4 5823 5824 5925 5924
4 5824 5825 5926 5925
4 5825 5826 5927 5926
4 5826 5827 5928 5927
4 5827 5828 5929 5928
4 5828 5829 5930 5929
4 5829 5830 5931 5930
4 5830 5831 5932 5931
4 5831 5832 5933 5932
4 5832 5833 5934 5933
4 5833 5834 5935 5934
4 5834 5835 5936 5935
4 5835 5836 5937 5936
4 5836 5837 5938 5937
4 5837 5838 5939 5938
4 5838 5839 5940 5939
4 5839 5840 5941 5940
4 5840 5841 5942 5941
4 5841 5842 5943 5942
4 5842 5843 5944 5943
4 5843 5844 5945 5944
4 5844 5845 5946 5945
4 5845 5846 5947 5946
4 5846 5847 5948 5947
4 5847 5848 5949 5948
4 5848 5849 5950 5949
4 5849 5850 5951 5950
4 5850 5851 5952 5951
4 5851 5852 5953 5952
4 5852 5853 5954 5953
4 5853 5854 5955 5954
4 5854 5855 5956 5955
4 5855 5856 5957 5956
4 5856 5857 5958 5957
4 5858 5859 5960 5959
4 5859 5860 5961 5960
4 5860 5861 5962 5961
4 5861 5862 5963 5962
4 5862 5863 5964 5963
4 5863 5864 5965 5964
4 5864 5865 5966 5965
4 5865 5866 5967 5966
4 5866 5867 5968 5967
4 5867 5868 5969 5968
4 5868 5869 5970 5969
4 5869 5870 5971 5970
4 5870 5871 5972 5971
4 5871 5872 5973 5972
4 5872 5873 5974 5973
4 5873 5874 5975 5974
4 5874 5875 5976 5975
4 5875 5876 5977 5976
4 5876 5877 5978 5977
4 5877 5878 5979 5978
4 5878 5879 5980 5979
4 5879 5880 5981 5980
4 5880 5881 5982 5981
4 5881 5882 5983 5982
4 5882 5883 5984 5983
4 5883 5884 5985 5984
4 5884 5885 5986 5985
4 5885 5886 5987 5986
4 5886 5887 5988 5987
4 5887 5888 5989 5988
4 5888 5889 5990 5989
4 5889 5890 5991 5990
4 5890 5891 5992 5991
4 5891 5892 5993 5992
4 5892 5893 5994 5993
4 5893 5894 5995 5994
4 5894 5895 5996 5995
4 5895 5896 5997 5996
4 5896 5897 5998 5997
4 5897 5898 5999 5998
4 5898 5899 6000 5999
4 5899 5900 6001 6000
4 5900 5901 6002 6001
4 5901 5902 6003 6002
4 5902 5903 6004 6003
4 5903 5904 6005 6004
4 5904 5905 6006 6005
4 5905 5906 6007 6006
4 5906 5907 6008 6007
4 5907 5908 6009 6008
4 5908 5909 6010 6009
4 5909 5910 6011 6010
4 5910 5911 6012 6011
4 5911 5912 6013 6012
4 5912 5913 6014 6013
4 5913 5914 6015 6014
4 5914 5915 6016 6015
4 5915 5916 6017 6016
4 5916 5917 6018 6017
4 5917 5918 6019 6018
4 5918 5919 6020 6019
4 5919 5920 6021 6020
4 5920 5921 6022 6021
4 5921 5922 6023 6022
4 5922 5923 6024 6023
4 5923 5924 6025 6024
4 5924 5925 6026 6025
4 5925 5926 6027 6026
4 5926 5927 6028 6027
4 5927 5928 6029 6028
4 5928 5929 6030 6029
4 5929 5930 6031 6030
4 5930 5931 6032 6031
4 5931 5932 6033 6032
4 5932 5933 6034 6033
4 5933 5934 6035 6034
4 5934 5935 6036 6035
4 5935 5936 6037 6036
4 5936 5937 6038 6037
4 5937 5938 6039 6038
4 5938 5939 6040 6039
4 5939 5940 6041 6040
4 5940 5941 6042 6041
4 5941 5942 6043 6042
4 5942 5943 6044 6043
4 5943 5944 6045 6044
4 5944 5945 6046 6045
4 5945 5946 6047 6046
4 5946 5947 6048 6047
4 5947 5948 6049 6048
4 5948 5949 6050 6049
4 5949 5950 6051 6050
4 5950 5951 6052 6051
4 5951 5952 6053 6052
4 5952 5953 6054 6053
4 5953 5954 6055 6054
4 5954 5955 6056 6055
4 5955 5956 6057 6056
4 5956 5957 6058 6057
4 5957 5958 6059 6058
4 5959 5960 6061 6060
4 5960 5961 6062 6061
4 5961 5962 6063 6062
4 5962 5963 6064 6063
4 5963 5964 6065 6064
4 5964 5965 6066 6065
4 5965 5966 6067 6066
4 5966 5967 6068 6067
4 5967 5968 6069 6068
4 5968 5969 6070 6069
4 5969 5970 6071 6070
4 5970 5971 6072 6071
4 5971 5972 6073 6072
4 5972 5973 6074 6073
4 5973 5974 6075 6074
4 5974 5975 6076 6075
4 5975 5976 6077 6076
4 5976 5977 6078 6077
4 5977 5978 6079 6078
4 5978 5979 6080 6079
4 5979 5980 6081 6080
4 5980 5981 6082 6081
4 5981 5982 6083 6082
4 5982 5983 6084 6083
4 5983 5984 6085 6084
4 5984 5985 6086 6085
4 5985 5986 6087 6086
4 5986 5987 6088 6087
4 5987 5988 6089 6088
4 5988 5989 6090 6089
4 5989 5990 6091 6090
4 5990 5991 6092 6091
4 5991 5992 6093 6092
4 5992 5993 6094 6093
4 5993 5994 6095 6094
4 5994 5995 6096 6095
4 5995 5996 6097 6096
4 5996 5997 6098 6097
4 5997 5998 6099 6098
4 5998 5999 6100 6099
4 5999 6000 6101 6100
4 6000 6001 6102 6101
4 6001 6002 6103 6102
4 6002 6003 6104 6103
4 6003 6004 6105 6104
4 6004 6005 6106 6105
4 6005 6006 6107 6106
4 6006 6007 6108 6107
4 6007 6008 6109 6108
4 6008 6009 6110 6109
4 6009 6010 6111 6110
4 6010 6011 6112 6111
4 6011 6012 6113 6112
4 6012 6013 6114 6113
4 6013 6014 6115 6114
4 6014 6015 6116 6115
4 6015 6016 6117 6116
4 6016 6017 6118 6117
4 6017 6018 6119 6118
4 6018 6019 6120 6119
4 6019 6020 6121 6120
4 6020 6021 6122 6121
4 6021 6022 6123 6122
4 6022 6023 6124 6123
4 6023 6024 6125 6124
4 6024 6025 6126 6125
4 6025 6026 6127 6126
4 6026 6027 6128 6127
4 6027 6028 6129 6128
4 6028 6029 6130 6129
4 6029 6030 6131 6130
4 6030 6031 6132 6131
4 6031 6032 6133 6132
4 6032 6033 6134 6133
4 6033 6034 6135 6134
4 6034 6035 6136 6135
4 6035 6036 6137 6136
4 6036 6037 6138 6137
4 6037 6038 6139 6138
4 6038 6039 6140 6139
4 6039 6040 6141 6140
4 6040 6041 6142 6141
4 6041 6042 6143 6142
4 6042 6043 6144 6143
4 6043 6044 6145 6144
4 6044 6045 6146 6145
4 6045 6046 6147 6146
4 6046 6047 6148 6147
4 6047 6048 6149 6148
4 6048 6049 6150 6149
4 6049 6050 6151 6150
4 6050 6051 6152 6151
4 6051 6052 6153 6152
4 6052 6053 6154 6153
4 6053 6054 6155 6154
4 6054 6055 6156 6155
4 6055 6056 6157 6156
4 6056 6057 6158 6157
4 6057 6058 6159 6158
4 6058 6059 6160 6159
4 6060 6061 6162 6161
4 6061 6062 6163 6162
4 6062 6063 6164 6163
4 6063 6064 6165 6164
4 6064 6065 6166 6165
4 6065 6066 6167 6166
4 6066 6067 6168 6167
4 6067 6068 6169 6168
4 6068 6069 6170 6169
4 6069 6070 6171 6170
4 6070 6071 6172 6171
4 6071 6072 6173 6172
4 6072 6073 6174 6173
4 6073 6074 6175 6174
4 6074 6075 6176 6175
4 6075 6076 6177 6176
4 6076 6077 6178 6177
4 6077 6078 6179 6178
4 6078 6079 6180 6179
4 6079 6080 6181 6180
4 6080 6081 6182 6181
4 6081 6082 6183 6182
4 6082 6083 6184 6183
4 6083 6084 6185 6184
4 6084 6085 6186 6185
4 6085 6086 6187 6186
4 6086 6087 6188 6187
4 6087 6088 6189 6188
4 6088 6089 6190 6189
4 6089 6090 6191 6190
4 6090 6091 6192 6191
4 6091 6092 6193 6192
4 6092 6093 6194 6193
4 6093 6094 6195 6194
4 6094 6095 6196 6195
4 6095 6096 6197 6196
4 6096 6097 6198 6197
4 6097 6098 6199 6198
4 6098 6099 6200 6199
4 6099 6100 6201 6200
4 6100 6101 6202 6201
4 6101 6102 6203 6202
4 6102 6103 6204 6203
4 6103 6104 6205 6204
4 6104 6105 6206 6205
4 6105 6106 6207 6206
4 6106 6107 6208 6207
4 6107 6108 6209 6208
4 6108 6109 6210 6209
4 6109 6110 6211 6210
4 6110 6111 6212 6211
4 6111 6112 6213 6212
4 6112 6113 6214 6213
4 6113 6114 6215 6214
4 6114 6115 6216 6215
4 6115 6116 6217 6216
4 6116 6117 6218 6217
4 6117 6118 6219 6218
4 6118 6119 6220 6219
4 6119 6120 6221 6220
4 6120 6121 6222 6221
4 6121 6122 6223 6222
4 6122 6123 6224 6223
4 6123 6124 6225 6224
4 6124 6125 6226 6225
4 6125 6126 6227 6226
4 6126 6127 6228 6227
4 6127 6128 6229 6228
4 6128 6129 6230 6229
4 6129 6130 6231 6230
4 6130 6131 6232 6231
4 6131 6132 6233 6232
4 6132 6133 6234 6233
4 6133 6134 6235 6234
4 6134 6135 6236 6235
4 6135 6136 6237 6236
4 6136 6137 6238 6237
4 6137 6138 6239 6238
4 6138 6139 6240 6239
4 6139 6140 6241 6240
4 6140 6141 6242 6241
4 6141 6142 6243 6242
4 6142 6143 6244 6243
4 6143 6144 6245 6244
4 6144 6145 6246 6245
4 6145 6146 6247 6246
4 6146 6147 6248 6247
4 6147 6148 6249 6248
4 6148 6149 6250 6249
4 6149 6150 6251 6250
4 6150 6151 6252 6251
4 6151 6152 6253 6252
4 6152 6153 6254 6253
4 6153 6154 6255 6254
4 6154 6155 6256 6255
4 6155 6156 6257 6256
4 6156 6157 6258 6257
4 6157 6158 6259 6258
4 6158 6159 6260 6259
4 6159 6160 6261 6260
4 6161 6162 6263 6262
4 6162 6163 6264 6263
4 6163 6164 6265 6264
4 6164 6165 6266 6265
4 6165 6166 6267 6266
4 6166 6167 6268 6267
4 6167 6168 6269 6268
4 6168 6169 6270 6269
4 6169 6170 6271 6270
4 6170 6171 6272 6271
4 6171 6172 6273 6272
4 6172 6173 6274 6273
4 6173 6174 6275 6274
4 6174 6175 6276 6275
4 6175 6176 6277 6276
4 6176 6177 6278 6277
4 6177 6178 6279 6278
4 6178 6179 6280 6279
4 6179 6180 6281 6280
4 6180 6181 6282 6281
4 6181 6182 6283 6282
4 6182 6183 6284 6283
4 6183 6184 6285 6284
4 6184 6185 6286 6285
4 6185 6186 6287 6286
4 6186 6187 6288 6287
4 6187 6188 6289 6288
4 6188 6189 6290 6289
4 6189 6190 6291 6290
4 6190 6191 6292 6291
4 6191 6192 6293 6292
4 6192 6193 6294 6293
4 6193 6194 6295 6294
4 6194 6195 6296 6295
4 6195 6196 6297 6296
4 6196 6197 6298 6297
4 6197 6198 6299 6298
4 6198 6199 6300 6299
4 6199 6200 6301 6300
4 6200 6201 6302 6301
4 6201 6202 6303 6302
4 6202 6203 6304 6303
4 6203 6204 6305 6304
4 6204 6205 6306 6305
4 6205 6206 6307 6306
4 6206 6207 6308 6307
4 6207 6208 6309 6308
4 6208 6209 6310 6309
4 6209 6210 6311 6310
4 6210 6211 6312 6311
4 6211 6212 6313 6312
4 6212 6213 6314 6313
4 6213 6214 6315 6314
4 6214 6215 6316 6315
4 6215 6216 6317 6316
4 6216 6217 6318 6317
4 6217 6218 6319 6318
4 6218 6219 6320 6319
4 6219 6220 6321 6320
4 6220 6221 6322 6321
4 6221 6222 6323 6322
4 6222 6223 6324 6323
4 6223 6224 6325 6324
4 6224 6225 6326 6325
4 6225 6226 6327 6326
4 6226 6227 6328 6327
4 6227 6228 6329 6328
4 6228 6229 6330 6329
4 6229 6230 6331 6330
4 6230 6231 6332 6331
4 6231 6232 6333 6332
4 6232 6233 6334 6333
4 6233 6234 6335 6334
4 6234 6235 6336 6335
4 6235 6236 6337 6336
4 6236 6237 6338 6337
4 6237 6238 6339 6338
4 6238 6239 6340 6339
4 6239 6240 6341 6340
4 6240 6241 6342 6341
4 6241 6242 6343 6342
4 6242 6243 6344 6343
4 6243 6244 6345 6344
4 6244 6245 6346 6345
4 6245 6246 6347 6346
4 6246 6247 6348 6347
4 6247 6248 6349 6348
4 6248 6249 6350 6349
4 6249 6250 6351 6350
4 6250 6251 6352 6351
4 6251 6252 6353 6352
4 6252 6253 6354 6353
4 6253 6254 6355 6354
4 6254 6255 6356 6355
4 6255 6256 6357 6356
4 6256 6257 6358 6357
4 6257 6258 6359 6358
4 6258 6259 6360 6359
4 6259 6260 6361 6360
4 6260 6261 6362 6361
4 6262 6263 6364 6363
4 6263 6264 6365 6364
4 6264 6265 6366 6365
4 6265 6266 6367 6366
4 6266 6267 6368 6367
4 6267 6268 6369 6368
4 6268 6269 6370 6369
4 6269 6270 6371 6370
4 6270 6271 6372 6371
4 6271 6272 6373 6372
4 6272 6273 6374 6373
4 6273 6274 6375 6374
4 6274 6275 6376 6375
4 6275 6276 6377 6376
4 6276 6277 6378 6377
4 6277 6278 6379 6378
4 6278 6279 6380 6379
4 6279 6280 6381 6380
4 6280 6281 6382 6381
4 6281 6282 6383 6382
4 6282 6283 6384 6383
4 6283 6284 6385 6384
4 6284 6285 6386 6385
4 6285 6286 6387 6386
4 6286 6287 6388 6387
4 6287 6288 6389 6388
4 6288 6289 6390 6389
4 6289 6290 6391 6390
4 6290 6291 6392 6391
4 6291 6292 6393 6392
4 6292 6293 6394 6393
4 6293 6294 6395 6394
4 6294 6295 6396 6395
4 6295 6296 6397 6396
4 6296 6297 6398 6397
4 6297 6298 6399 6398
4 6298 6299 6400 6399
4 6299 6300 6401 6400
4 6300 6301 6402 6401
4 6301 6302 6403 6402
4 6302 6303 6404 6403
4 6303 6304 6405 6404
4 6304 6305 6406 6405
4 6305 6306 6407 6406
4 6306 6307 6408 6407
4 6307 6308 6409 6408
4 6308 6309 6410 6409
4 6309 6310 6411 6410
4 6310 6311 6412 6411
4 6311 6312 6413 6412
4 6312 6313 6414 6413
4 6313 6314 6415 6414
4 6314 6315 6416 6415
4 6315 6316 6417 6416
4 6316 6317 6418 6417
4 6317 6318 6419 6418
4 6318 6319 6420 6419
4 6319 6320 6421 6420
4 6320 6321 6422 6421
4 6321 6322 6423 6422
4 6322 6323 6424 6423
4 6323 6324 6425 6424
4 6324 6325 6426 6425
4 6325 6326 6427 6426
4 6326 6327 6428 6427
4 6327 6328 6429 6428
4 6328 6329 6430 6429
4 6329 6330 6431 6430
4 6330 6331 6432 6431
4 6331 6332 6433 6432
4 6332 6333 6434 6433
4 6333 6334 6435 6434
4 6334 6335 6436 6435
4 6335 6336 6437 6436
4 6336 6337 6438 6437
4 6337 6338 6439 6438
4 6338 6339 6440 6439
4 6339 6340 6441 6440
4 6340 6341 6442 6441
4 6341 6342 6443 6442
4 6342 6343 6444 6443
4 6343 6344 6445 6444
4 6344 6345 6446 6445
4 6345 6346 6447 6446
4 6346 6347 6448 6447
4 6347 6348 6449 6448
4 6348 6349 6450 6449
4 6349 6350 6451 6450
4 6350 6351 6452 6451
4 6351 6352 6453 6452
4 6352 6353 6454 6453
4 6353 6354 6455 6454
4 6354 6355 6456 6455
4 6355 6356 6457 6456
4 6356 6357 6458 6457
4 6357 6358 6459 6458
4 6358 6359 6460 6459
4 6359 6360 6461 6460
4 6360 6361 6462 6461
4 6361 6362 6463 6462
4 6363 6364 6465 6464
4 6364 6365 6466 6465
4 6365 6366 6467 6466
4 6366 6367 6468 6467
4 6367 6368 6469 6468
4 6368 6369 6470 6469
4 6369 6370 6471 6470
4 6370 6371 6472 6471
4 6371 6372 6473 6472
4 6372 6373 6474 6473
4 6373 6374 6475 6474
4 6374 6375 6476 6475
4 6375 6376 6477 6476
4 6376 6377 6478 6477
4 6377 6378 6479 6478
4 6378 6379 6480 6479
4 6379 6380 6481 6480
4 6380 6381 6482 6481
4 6381 6382 6483 6482
4 6382 6383 6484 6483
4 6383 6384 6485 6484
4 6384 6385 6486 6485
4 6385 6386 6487 6486
4 6386 6387 6488 6487
4 6387 6388 6489 6488
4 6388 6389 6490 6489
4 6389 6390 6491 6490
4 6390 6391 6492 6491
4 6391 6392 6493 6492
4 6392 6393 6494 6493
4 6393 6394 6495 6494
4 6394 6395 6496 6495
4 6395 6396 6497 6496
4 6396 6397 6498 6497
4 6397 6398 6499 6498
4 6398 6399 6500 6499
4 6399 6400 6501 6500
4 6400 6401 6502 6501
4 6401 6402 6503 6502
4 6402 6403 6504 6503
4 6403 6404 6505 6504
4 6404 6405 6506 6505
4 6405 6406 6507 6506
4 6406 6407 6508 6507
4 6407 6408 6509 6508
4 6408 6409 6510 6509
4 6409 6410 6511 6510
4 6410 6411 6512 6511
4 6411 6412 6513 6512
4 6412 6413 6514 6513
4 6413 6414 6515 6514
4 6414 6415 6516 6515
4 6415 6416 6517 6516
4 6416 6417 6518 6517
4 6417 6418 6519 6518
4 6418 6419 6520 6519
4 6419 6420 6521 6520
4 6420 6421 6522 6521
4 6421 6422 6523 6522
4 6422 6423 6524 6523
4 6423 6424 6525 6524
4 6424 6425 6526 6525
4 6425 6426 6527 6526
4 6426 6427 6528 6527
4 6427 6428 6529 6528
4 6428 6429 6530 6529
4 6429 6430 6531 6530
4 6430 6431 6532 6531
4 6431 6432 6533 6532
4 6432 6433 6534 6533
4 6433 6434 6535 6534
4 6434 6435 6536 6535
4 6435 6436 6537 6536
4 6436 6437 6538 6537
4 6437 6438 6539 6538
4 6438 6439 6540 6539
4 6439 6440 6541 6540
4 6440 6441 6542 6541
4 6441 6442 6543 6542
4 6442 6443 6544 6543
4 6443 6444 6545 6544
4 6444 6445 6546 6545
4 6445 6446 6547 6546
4 6446 6447 6548 6547
4 6447 6448 6549 6548
4 6448 6449 6550 6549
4 6449 6450 6551 6550
4 6450 6451 6552 6551
4 6451 6452 6553 6552
4 6452 6453 6554 6553
4 6453 6454 6555 6554
4 6454 6455 6556 6555
4 6455 6456 6557 6556
4 6456 6457 6558 6557
4 6457 6458 6559 6558
4 6458 6459 6560 6559
4 6459 6460 6561 6560
4 6460 6461 6562 6561
4 6461 6462 6563 6562
4 6462 6463 6564 6563
4 6464 6465 6566 6565
4 6465 6466 6567 6566
4 6466 6467 6568 6567
4 6467 6468 6569 6568
4 6468 6469 6570 6569
4 6469 6470 6571 6570
4 6470 6471 6572 6571
4 6471 6472 6573 6572
4 6472 6473 6574 6573
4 6473 6474 6575 6574
4 6474 6475 6576 6575
4 6475 6476 6577 6576
4 6476 6477 6578 6577
4 6477 6478 6579 6578
4 6478 6479 6580 6579
4 6479 6480 6581 6580
4 6480 6481 6582 6581
4 6481 6482 6583 6582
4 6482 6483 6584 6583
4 6483 6484 6585 6584
4 6484 6485 6586 6585
4 6485 6486 6587 6586
4 6486 6487 6588 6587
4 6487 6488 6589 6588
4 6488 6489 6590 6589
4 6489 6490 6591 6590
4 6490 6491 6592 6591
4 6491 6492 6593 6592
4 6492 6493 6594 6593
4 6493 6494 6595 6594
4 6494 6495 6596 6595
4 6495 6496 6597 6596
4 6496 6497 6598 6597
4 6497 6498 6599 6598
4 6498 6499 6600 6599
4 6499 6500 6601 6600
4 6500 6501 6602 6601
4 6501 6502 6603 6602
4 6502 6503 6604 6603
4 6503 6504 6605 6604
4 6504 6505 6606 6605
4 6505 6506 6607 6606
4 6506 6507 6608 6607
4 6507 6508 6609 6608
4 6508 6509 6610 6609
4 6509 6510 6611 6610
4 6510 6511 6612 6611
4 6511 6512 6613 6612
4 6512 6513 6614 6613
4 6513 6514 6615 6614
4 6514 6515 6616 6615
4 6515 6516 6617 6616
4 6516 6517 6618 6617
4 6517 6518 6619 6618
4 6518 6519 6620 6619
4 6519 6520 6621 6620
4 6520 6521 6622 6621
4 6521 6522 6623 6622
4 6522 6523 6624 6623
4 6523 6524 6625 6624
4 6524 6525 6626 6625
4 6525 6526 6627 6626
4 6526 6527 6628 6627
4 6527 6528 6629 6628
4 6528 6529 6630 6629
4 6529 6530 6631 6630
4 6530 6531 6632 6631
4 6531 6532 6633 6632
4 6532 6533 6634 6633
4 6533 6534 6635 6634
4 6534 6535 6636 6635
4 6535 6536 6637 6636
4 6536 6537 6638 6637
4 6537 6538 6639 6638
4 6538 6539 6640 6639
4 6539 6540 6641 6640
4 6540 6541 6642 6641
4 6541 6542 6643 6642
4 6542 6543 6644 6643
4 6543 6544 6645 6644
4 6544 6545 6646 6645
4 6545 6546 6647 6646
4 6546 6547 6648 6647
4 6547 6548 6649 6648
4 6548 6549 6650 6649
4 6549 6550 6651 6650
4 6550 6551 6652 6651
4 6551 6552 6653 6652
4 6552 6553 6654 6653
4 6553 6554 6655 6654
4 6554 6555 6656 6655
4 6555 6556 6657 6656
4 6556 6557 6658 6657
4 6557 6558 6659 6658
4 6558 6559 6660 6659
4 6559 6560 6661 6660
4 6560 6561 6662 6661
4 6561 6562 6663 6662
4 6562 6563 6664 6663
4 6563 6564 6665 6664
4 6565 6566 6667 6666
4 6566 6567 6668 6667
4 6567 6568 6669 6668
4 6568 6569 6670 6669
4 6569 6570 6671 6670
4 6570 6571 6672 6671
4 6571 6572 6673 6672
4 6572 6573 6674 6673
4 6573 6574 6675 6674
4 6574 6575 6676 6675
4 6575 6576 6677 6676
4 6576 6577 6678 6677
4 6577 6578 6679 6678
4 6578 6579 6680 6679
4 6579 6580 6681 6680
4 6580 6581 6682 6681
4 6581 6582 6683 6682
4 6582 6583 6684 6683
4 6583 6584 6685 6684
4 6584 6585 6686 6685
4 6585 6586 6687 6686
4 6586 6587 6688 6687
4 6587 6588 6689 6688
4 6588 6589 6690 6689
4 6589 6590 6691 6690
4 6590 6591 6692 6691
4 6591 6592 6693 6692
4 6592 6593 6694 6693
4 6593 6594 6695 6694
4 6594 6595 6696 6695
4 6595 6596 6697 6696
4 6596 6597 6698 6697
4 6597 6598 6699 6698
4 6598 6599 6700 6699
4 6599 6600 6701 6700
4 6600 6601 6702 6701
4 6601 6602 6703 6702
4 6602 6603 6704 6703
4 6603 6604 6705 6704
4 6604 6605 6706 6705
4 6605 6606 6707 6706
4 6606 6607 6708 6707
4 6607 6608 6709 6708
4 6608 6609 6710 6709
4 6609 6610 6711 6710
4 6610 6611 6712 6711
4 6611 6612 6713 6712
4 6612 6613 6714 6713
4 6613 6614 6715 6714
4 6614 6615 6716 6715
4 6615 6616 6717 6716
4 6616 6617 6718 6717
4 6617 6618 6719 6718
4 6618 6619 6720 6719
4 6619 6620 6721 6720
4 6620 6621 6722 6721
4 6621 6622 6723 6722
4 6622 6623 6724 6723
4 6623 6624 6725 6724
4 6624 6625 6726 6725
4 6625 6626 6727 6726
4 6626 6627 6728 6727
4 6627 6628 6729 6728
4 6628 6629 6730 6729
4 6629 6630 6731 6730
4 6630 6631 6732 6731
4 6631 6632 6733 6732
4 6632 6633 6734 6733
4 6633 6634 6735 6734
4 6634 6635 6736 6735
4 6635 6636 6737 6736
4 6636 6637 6738 6737
4 6637 6638 6739 6738
4 6638 6639 6740 6739
4 6639 6640 6741 6740
4 6640 6641 6742 6741
4 6641 6642 6743 6742
4 6642 6643 6744 6743
4 6643 6644 6745 6744
4 6644 6645 6746 6745
4 6645 6646 6747 6746
4 6646 6647 6748 6747
4 6647 6648 6749 6748
4 6648 6649 6750 6749
4 6649 6650 6751 6750
4 6650 6651 6752 6751
4 6651 6652 6753 6752
4 6652 6653 6754 6753
4 6653 6654 6755 6754
4 6654 6655 6756 6755
4 6655 6656 6757 6756
4 6656 6657 6758 6757
4 6657 6658 6759 6758
4 6658 6659 6760 6759
4 6659 6660 6761 6760
4 6660 6661 6762 6761
4 6661 6662 6763 6762
4 6662 6663 6764 6763
4 6663 6664 6765 6764
4 6664 6665 6766 6765
4 6666 6667 6768 6767
4 6667 6668 6769 6768
4 6668 6669 6770 6769
4 6669 6670 6771 6770
4 6670 6671 6772 6771
4 6671 6672 6773 6772
4 6672 6673 6774 6773
4 6673 6674 6775 6774
4 6674 6675 6776 6775
4 6675 6676 6777 6776
4 6676 6677 6778 6777
4 6677 6678 6779 6778
4 6678 6679 6780 6779
4 6679 6680 6781 6780
4 6680 6681 6782 6781
4 6681 6682 6783 6782
4 6682 6683 6784 6783
4 6683 6684 6785 6784
4 6684 6685 6786 6785
4 6685 6686 6787 6786
4 6686 6687 6788 6787
4 6687 6688 6789 6788
4 6688 6689 6790 6789
4 6689 6690 6791 6790
4 6690 6691 6792 6791
4 6691 6692 6793 6792
4 6692 6693 6794 6793
4 6693 6694 6795 6794
4 6694 6695 6796 6795
4 6695 6696 6797 6796
4 6696 6697 6798 6797
4 6697 6698 6799 6798
4 6698 6699 6800 6799
4 6699 6700 6801 6800
4 6700 6701 6802 6801
4 6701 6702 6803 6802
4 6702 6703 6804 6803
4 6703 6704 6805 6804
4 6704 6705 6806 6805
4 6705 6706 6807 6806
4 6706 6707 6808 6807
4 6707 6708 6809 6808
4 6708 6709 6810 6809
4 6709 6710 6811 6810
4 6710 6711 6812 6811
4 6711 6712 6813 6812
4 6712 6713 6814 6813
4 6713 6714 6815 6814
4 6714 6715 6816 6815
4 6715 6716 6817 6816
4 6716 6717 6818 6817
4 6717 6718 6819 6818
4 6718 6719 6820 6819
4 6719 6720 6821 6820
4 6720 6721 6822 6821
4 6721 6722 6823 6822
4 6722 6723 6824 6823
4 6723 6724 6825 6824
4 6724 6725 6826 6825
4 6725 6726 6827 6826
4 6726 6727 6828 6827
4 6727 6728 6829 6828
4 6728 6729 6830 6829
4 6729 6730 6831 6830
4 6730 6731 6832 6831
4 6731 6732 6833 6832
4 6732 6733 6834 6833
4 6733 6734 6835 6834
4 6734 6735 6836 6835
4 6735 6736 6837 6836
4 6736 6737 6838 6837
4 6737 6738 6839 6838
4 6738 6739 6840 6839
4 6739 6740 6841 6840
4 6740 6741 6842 6841
4 6741 6742 6843 6842
4 6742 6743 6844 6843
4 6743 6744 6845 6844
4 6744 6745 6846 6845
4 6745 6746 6847 6846
4 6746 6747 6848 6847
4 6747 6748 6849 6848
4 6748 6749 6850 6849
4 6749 6750 6851 6850
4 6750 6751 6852 6851
4 6751 6752 6853 6852
4 6752 6753 6854 6853
4 6753 6754 6855 6854
4 6754 6755 6856 6855
4 6755 6756 6857 6856
4 6756 6757 6858 6857
4 6757 6758 6859 6858
4 6758 6759 6860 6859
4 6759 6760 6861 6860
4 6760 6761 6862 6861
4 6761 6762 6863 6862
4 6762 6763 6864 6863
4 6763 6764 6865 6864
4 6764 6765 6866 6865
4 6765 6766 6867 6866
4 6767 6768 6869 6868
4 6768 6769 6870 6869
4 6769 6770 6871 6870
4 6770 6771 6872 6871
4 6771 6772 6873 6872
4 6772 6773 6874 6873
4 6773 6774 6875 6874
4 6774 6775 6876 6875
4 6775 6776 6877 6876
4 6776 6777 6878 6877
4 6777 6778 6879 6878
4 6778 6779 6880 6879
4 6779 6780 6881 6880
4 6780 6781 6882 6881
4 6781 6782 6883 6882
4 6782 6783 6884 6883
4 6783 6784 6885 6884
4 6784 6785 6886 6885
4 6785 6786 6887 6886
4 6786 6787 6888 6887
4 6787 6788 6889 6888
4 6788 6789 6890 6889
4 6789 6790 6891 6890
4 6790 6791 6892 6891
4 6791 6792 6893 6892
4 6792 6793 6894 6893
4 6793 6794 6895 6894
4 6794 6795 6896 6895
4 6795 6796 6897 6896
4 6796 6797 6898 6897
4 6797 6798 6899 6898
4 6798 6799 6900 6899
4 6799 6800 6901 6900
4 6800 6801 6902 6901
4 6801 6802 6903 6902
4 6802 6803 6904 6903
4 6803 6804 6905 6904
4 6804 6805 6906 6905
4 6805 6806 6907 6906
4 6806 6807 6908 6907
4 6807 6808 6909 6908
4 6808 6809 6910 6909
4 6809 6810 6911 6910
4 6810 6811 6912 6911
4 6811 6812 6913 6912
4 6812 6813 6914 6913
4 6813 6814 6915 6914
4 6814 6815 6916 6915
4 6815 6816 6917 6916
4 6816 6817 6918 6917
4 6817 6818 6919 6918
4 6818 6819 6920 6919
4 6819 6820 6921 6920
4 6820 6821 6922 6921
4 6821 6822 6923 6922
4 6822 6823 6924 6923
4 6823 6824 6925 6924
4 6824 6825 6926 6925
4 6825 6826 6927 6926
4 6826 6827 6928 6927
4 6827 6828 6929 6928
4 6828 6829 6930 6929
4 6829 6830 6931 6930
4 6830 6831 6932 6931
4 6831 6832 6933 6932
4 6832 6833 6934 6933
4 6833 6834 6935 6934
4 6834 6835 6936 6935
4 6835 6836 6937 6936
4 6836 6837 6938 6937
4 6837 6838 6939 6938
4 6838 6839 6940 6939
4 6839 6840 6941 6940
4 6840 6841 6942 6941
4 6841 6842 6943 6942
4 6842 6843 6944 6943
4 6843 6844 6945 6944
4 6844 6845 6946 6945
4 6845 6846 6947 6946
4 6846 6847 6948 6947
4 6847 6848 6949 6948
4 6848 6849 6950 6949
4 6849 6850 6951 6950
4 6850 6851 6952 6951
4 6851 6852 6953 6952
4 6852 6853 6954 6953
4 6853 6854 6955 6954
4 6854 6855 6956 6955
4 6855 6856 6957 6956
4 6856 6857 6958 6957
4 6857 6858 6959 6958
4 6858 6859 6960 6959
4 6859 6860 6961 6960
4 6860 6861 6962 6961
4 6861 6862 6963 6962
4 6862 6863 6964 6963
4 6863 6864 6965 6964
4 6864 6865 6966 6965
4 6865 6866 6967 6966
4 6866 6867 6968 6967
4 6868 6869 6970 6969
4 6869 6870 6971 6970
4 6870 6871 6972 6971
4 6871 6872 6973 6972
4 6872 6873 6974 6973
4 6873 6874 6975 6974
4 6874 6875 6976 6975
4 6875 6876 6977 6976
4 6876 6877 6978 6977
4 6877 6878 6979 6978
4 6878 6879 6980 6979
4 6879 6880 6981 6980
4 6880 6881 6982 6981
4 6881 6882 6983 6982
4 6882 6883 6984 6983
4 6883 6884 6985 6984
4 6884 6885 6986 6985
4 6885 6886 6987 6986
4 6886 6887 6988 6987
4 6887 6888 6989 6988
4 6888 6889 6990 6989
4 6889 6890 6991 6990
4 6890 6891 6992 6991
4 6891 6892 6993 6992
4 6892 6893 6994 6993
4 6893 6894 6995 6994
4 6894 6895 6996 6995
4 6895 6896 6997 6996
4 6896 6897 6998 6997
4 6897 6898 6999 6998
4 6898 6899 7000 6999
4 6899 6900 7001 7000
4 6900 6901 7002 7001
4 6901 6902 7003 7002
4 6902 6903 7004 7003
4 6903 6904 7005 7004
4 6904 6905 7006 7005
4 6905 6906 7007 7006
4 6906 6907 7008 7007
4 6907 6908 7009 7008
4 6908 6909 7010 7009
4 6909 6910 7011 7010
4 6910 6911 7012 7011
4 6911 6912 7013 7012
4 6912 6913 7014 7013
4 6913 6914 7015 7014
4 6914 6915 7016 7015
4 6915 6916 7017 7016
4 6916 6917 7018 7017
4 6917 6918 7019 7018
4 6918 6919 7020 7019
4 6919 6920 7021 7020
4 6920 6921 7022 7021
4 6921 6922 7023 7022
4 6922 6923 7024 7023
4 6923 6924 7025 7024
4 6924 6925 7026 7025
4 6925 6926 7027 7026
4 6926 6927 7028 7027
4 6927 6928 7029 7028
4 6928 6929 7030 7029
4 6929 6930 7031 7030
4 6930 6931 7032 7031
4 6931 6932 7033 7032
4 6932 6933 7034 7033
4 6933 6934 7035 7034
4 6934 6935 7036 7035
4 6935 6936 7037 7036
4 6936 6937 7038 7037
4 6937 6938 7039 7038
4 6938 6939 7040 7039
4 6939 6940 7041 7040
4 6940 6941 7042 7041
4 6941 6942 7043 7042
4 6942 6943 7044 7043
4 6943 6944 7045 7044
4 6944 6945 7046 7045
4 6945 6946 7047 7046
4 6946 6947 7048 7047
4 6947 6948 7049 7048
4 6948 6949 7050 7049
4 6949 6950 7051 7050
4 6950 6951 7052 7051
4 6951 6952 7053 7052
4 6952 6953 7054 7053
4 6953 6954 7055 7054
4 6954 6955 7056 7055
4 6955 6956 7057 7056
4 6956 6957 7058 7057
4 6957 6958 7059 7058
4 6958 6959 7060 7059
4 6959 6960 7061 7060
4 6960 6961 7062 7061
4 6961 6962 7063 7062
4 6962 6963 7064 7063
4 6963 6964 7065 7064
4 6964 6965 7066 7065
4 6965 6966 7067 7066
4 6966 6967 7068 7067
4 6967 6968 7069 7068
4 6969 6970 7071 7070
4 6970 6971 7072 7071
4 6971 6972 7073 7072
4 6972 6973 7074 7073
4 6973 6974 7075 7074
4 6974 6975 7076 7075
4 6975 6976 7077 7076
4 6976 6977 7078 7077
4 6977 6978 7079 7078
4 6978 6979 7080 7079
4 6979 6980 7081 7080
4 6980 6981 7082 7081
4 6981 6982 7083 7082
4 6982 6983 7084 7083
4 6983 6984 7085 7084
4 6984 6985 7086 7085
4 6985 6986 7087 7086
4 6986 6987 7088 7087
4 6987 6988 7089 7088
4 6988 6989 7090 7089
4 6989 6990 7091 7090
4 6990 6991 7092 7091
4 6991 6992 7093 7092
4 6992 6993 7094 7093
4 6993 6994 7095 7094
4 6994 6995 7096 7095
4 6995 6996 7097 7096
4 6996 6997 7098 7097
4 6997 6998 7099 7098
4 6998 6999 7100 7099
4 6999 7000 7101 7100
4 7000 7001 7102 7101
4 7001 7002 7103 7102
4 7002 7003 7104 7103
4 7003 7004 7105 7104
4 7004 7005 7106 7105
4 7005 7006 7107 7106
4 7006 7007 7108 7107
4 7007 7008 7109 7108
4 7008 7009 7110 7109
4 7009 7010 7111 7110
4 7010 7011 7112 7111
4 7011 7012 7113 7112
4 7012 7013 7114 7113
4 7013 7014 7115 7114
4 7014 7015 7116 7115
4 7015 7016 7117 7116
4 7016 7017 7118 7117
4 7017 7018 7119 7118
4 7018 7019 7120 7119
4 7019 7020 7121 7120
4 7020 7021 7122 7121
4 7021 7022 7123 7122
4 7022 7023 7124 7123
4 7023 7024 7125 7124
4 7024 7025 7126 7125
4 7025 7026 7127 7126
4 7026 7027 7128 7127
4 7027 7028 7129 7128
4 7028 7029 7130 7129
4 7029 7030 7131 7130
4 7030 7031 7132 7131
4 7031 7032 7133 7132
4 7032 7033 7134 7133
4 7033 7034 7135 7134
4 7034 7035 7136 7135
4 7035 7036 7137 7136
4 7036 7037 7138 7137
4 7037 7038 7139 7138
4 7038 7039 7140 7139
4 7039 7040 7141 7140
4 7040 7041 7142 7141
4 7041 7042 7143 7142
4 7042 7043 7144 7143
4 7043 7044 7145 7144
4 7044 7045 7146 7145
4 7045 7046 7147 7146
4 7046 7047 7148 7147
4 7047 7048 7149 7148
4 7048 7049 7150 7149
4 7049 7050 7151 7150
4 7050 7051 7152 7151
4 7051 7052 7153 7152
4 7052 7053 7154 7153
4 7053 7054 7155 7154
4 7054 7055 7156 7155
4 7055 7056 7157 7156
4 7056 7057 7158 7157
4 7057 7058 7159 7158
4 7058 7059 7160 7159
4 7059 7060 7161 7160
4 7060 7061 7162 7161
4 7061 7062 7163 7162
4 7062 7063 7164 7163
4 7063 7064 7165 7164
4 7064 7065 7166 7165
4 7065 7066 7167 7166
4 7066 7067 7168 7167
4 7067 7068 7169 7168
4 7068 7069 7170 7169
4 7070 7071 7172 7171
4 7071 7072 7173 7172
4 7072 7073 7174 7173
4 7073 7074 7175 7174
4 7074 7075 7176 7175
4 7075 7076 7177 7176
4 7076 7077 7178 7177
4 7077 7078 7179 7178
4 7078 7079 7180 7179
4 7079 7080 7181 7180
4 7080 7081 7182 7181
4 7081 7082 7183 7182
4 7082 7083 7184 7183
4 7083 7084 7185 7184
4 7084 7085 7186 7185
4 7085 7086 7187 7186
4 7086 7087 7188 7187
4 7087 7088 7189 7188
4 7088 7089 7190 7189
4 7089 7090 7191 7190
4 7090 7091 7192 7191
4 7091 7092 7193 7192
4 7092 7093 7194 7193
4 7093 7094 7195 7194
4 7094 7095 7196 7195
4 7095 7096 7197 7196
4 7096 7097 7198 7197
4 7097 7098 7199 7198
4 7098 7099 7200 7199
4 7099 7100 7201 7200
4 7100 7101 7202 7201
4 7101 7102 7203 7202
4 7102 7103 7204 7203
4 7103 7104 7205 7204
4 7104 7105 7206 7205
4 7105 7106 7207 7206
4 7106 7107 7208 7207
4 7107 7108 7209 7208
4 7108 7109 7210 7209
4 7109 7110 7211 7210
4 7110 7111 7212 7211
4 7111 7112 7213 7212
4 7112 7113 7214 7213
4 7113 7114 7215 7214
4 7114 7115 7216 7215
4 7115 7116 7217 7216
4 7116 7117 7218 7217
4 7117 7118 7219 7218
4 7118 7119 7220 7219
4 7119 7120 7221 7220
4 7120 7121 7222 7221
4 7121 7122 7223 7222
4 7122 7123 7224 7223
4 7123 7124 7225 7224
4 7124 7125 7226 7225
4 7125 7126 7227 7226
4 7126 7127 7228 7227
4 7127 7128 7229 7228
4 7128 7129 7230 7229
4 7129 7130 7231 7230
4 7130 7131 7232 7231
4 7131 7132 7233 7232
4 7132 7133 7234 7233
4 7133 7134 7235 7234
4 7134 7135 7236 7235
4 7135 7136 7237 7236
4 7136 7137 7238 7237
4 7137 7138 7239 7238
4 7138 7139 7240 7239
4 7139 7140 7241 7240
4 7140 7141 7242 7241
4 7141 7142 7243 7242
4 7142 7143 7244 7243
4 7143 7144 7245 7244
4 7144 7145 7246 7245
4 7145 7146 7247 7246
4 7146 7147 7248 7247
4 7147 7148 7249 7248
4 7148 7149 7250 7249
4 7149 7150 7251 7250
4 7150 7151 7252 7251
4 7151 7152 7253 7252
4 7152 7153 7254 7253
4 7153 7154 7255 7254
4 7154 7155 7256 7255
4 7155 7156 7257 7256
4 7156 7157 7258 7257
4 7157 7158 7259 7258
4 7158 7159 7260 7259
4 7159 7160 7261 7260
4 7160 7161 7262 7261
4 7161 7162 7263 7262
4 7162 7163 7264 7263
4 7163 7164 7265 7264
4 7164 7165 7266 7265
4 7165 7166 7267 7266
4 7166 7167 7268 7267
4 7167 7168 7269 7268
4 7168 7169 7270 7269
4 7169 7170 7271 7270
4 7171 7172 7273 7272
4 7172 7173 7274 7273
4 7173 7174 7275 7274
4 7174 7175 7276 7275
4 7175 7176 7277 7276
4 7176 7177 7278 7277
4 7177 7178 7279 7278
4 7178 7179 7280 7279
4 7179 7180 7281 7280
4 7180 7181 7282 7281
4 7181 7182 7283 7282
4 7182 7183 7284 7283
4 7183 7184 7285 7284
4 7184 7185 7286 7285
4 7185 7186 7287 7286
4 7186 7187 7288 7287
4 7187 7188 7289 7288
4 7188 7189 7290 7289
4 7189 7190 7291 7290
4 7190 7191 7292 7291
4 7191 7192 7293 7292
4 7192 7193 7294 7293
4 7193 7194 7295 7294
4 7194 7195 7296 7295
4 7195 7196 7297 7296
4 7196 7197 7298 7297
4 7197 7198 7299 7298
4 7198 7199 7300 7299
4 7199 7200 7301 7300
4 7200 7201 7302 7301
4 7201 7202 7303 7302
4 7202 7203 7304 7303
4 7203 7204 7305 7304
4 7204 7205 7306 7305
4 7205 7206 7307 7306
4 7206 7207 7308 7307
4 7207 7208 7309 7308
4 7208 7209 7310 7309
4 7209 7210 7311 7310
4 7210 7211 7312 7311
4 7211 7212 7313 7312
4 7212 7213 7314 7313
4 7213 7214 7315 7314
4 7214 7215 7316 7315
4 7215 7216 7317 7316
4 7216 7217 7318 7317
4 7217 7218 7319 7318
4 7218 7219 7320 7319
4 7219 7220 7321 7320
4 7220 7221 7322 7321
4 7221 7222 7323 7322
4 7222 7223 7324 7323
4 7223 7224 7325 7324
4 7224 7225 7326 7325
4 7225 7226 7327 7326
4 7226 7227 7328 7327
4 7227 7228 7329 7328
4 7228 7229 7330 7329
4 7229 7230 7331 7330
4 7230 7231 7332 7331
4 7231 7232 7333 7332
4 7232 7233 7334 7333
4 7233 7234 7335 7334
4 7234 7235 7336 7335
4 7235 7236 7337 7336
4 7236 7237 7338 7337
4 7237 7238 7339 7338
4 7238 7239 7340 7339
4 7239 7240 7341 7340
4 7240 7241 7342 7341
4 7241 7242 7343 7342
4 7242 7243 7344 7343
4 7243 7244 7345 7344
4 7244 7245 7346 7345
4 7245 7246 7347 7346
4 7246 7247 7348 7347
4 7247 7248 7349 7348
4 7248 7249 7350 7349
4 7249 7250 7351 7350
4 7250 7251 7352 7351
4 7251 7252 7353 7352
4 7252 7253 7354 7353
4 7253 7254 7355 7354
4 7254 7255 7356 7355
4 7255 7256 7357 7356
4 7256 7257 7358 7357
4 7257 7258 7359 7358
4 7258 7259 7360 7359
4 7259 7260 7361 7360
4 7260 7261 7362 7361
4 7261 7262 7363 7362
4 7262 7263 7364 7363
4 7263 7264 7365 7364
4 7264 7265 7366 7365
4 7265 7266 7367 7366
4 7266 7267 7368 7367
4 7267 7268 7369 7368
4 7268 7269 7370 7369
4 7269 7270 7371 7370
4 7270 7271 7372 7371
4 7272 7273 7374 7373
4 7273 7274 7375 7374
4 7274 7275 7376 7375
4 7275 7276 7377 7376
4 7276 7277 7378 7377
4 7277 7278 7379 7378
4 7278 7279 7380 7379
4 7279 7280 7381 7380
4 7280 7281 7382 7381
4 7281 7282 7383 7382
4 7282 7283 7384 7383
4 7283 7284 7385 7384
4 7284 7285 7386 7385
4 7285 7286 7387 7386
4 7286 7287 7388 7387
4 7287 7288 7389 7388
4 7288 7289 7390 7389
4 7289 7290 7391 7390
4 7290 7291 7392 7391
4 7291 7292 7393 7392
4 7292 7293 7394 7393
4 7293 7294 7395 7394
4 7294 7295 7396 7395
4 7295 7296 7397 7396
4 7296 7297 7398 7397
4 7297 7298 7399 7398
4 7298 7299 7400 7399
4 7299 7300 7401 7400
4 7300 7301 7402 7401
4 7301 7302 7403 7402
4 7302 7303 7404 7403
4 7303 7304 7405 7404
4 7304 7305 7406 7405
4 7305 7306 7407 7406
4 7306 7307 7408 7407
4 7307 7308 7409 7408
4 7308 7309 7410 7409
4 7309 7310 7411 7410
4 7310 7311 7412 7411
4 7311 7312 7413 7412
4 7312 7313 7414 7413
4 7313 7314 7415 7414
4 7314 7315 7416 7415
4 7315 7316 7417 7416
4 7316 7317 7418 7417
4 7317 7318 7419 7418
4 7318 7319 7420 7419
4 7319 7320 7421 7420
4 7320 7321 7422 7421
4 7321 7322 7423 7422
4 7322 7323 7424 7423
4 7323 7324 7425 7424
4 7324 7325 7426 7425
4 7325 7326 7427 7426
4 7326 7327 7428 7427
4 7327 7328 7429 7428
4 7328 7329 7430 7429
4 7329 7330 7431 7430
4 7330 7331 7432 7431
4 7331 7332 7433 7432
4 7332 7333 7434 7433
4 7333 7334 7435 7434
4 7334 7335 7436 7435
4 7335 7336 7437 7436
4 7336 7337 7438 7437
4 7337 7338 7439 7438
4 7338 7339 7440 7439
4 7339 7340 7441 7440
4 7340 7341 7442 7441
4 7341 7342 7443 7442
4 7342 7343 7444 7443
4 7343 7344 7445 7444
4 7344 7345 7446 7445
4 7345 7346 7447 7446
4 7346 7347 7448 7447
4 7347 7348 7449 7448
4 7348 7349 7450 7449
4 7349 7350 7451 7450
4 7350 7351 7452 7451
4 7351 7352 7453 7452
4 7352 7353 7454 7453
4 7353 7354 7455 7454
4 7354 7355 7456 7455
4 7355 7356 7457 7456
4 7356 7357 7458 7457
4 7357 7358 7459 7458
4 7358 7359 7460 7459
4 7359 7360 7461 7460
4 7360 7361 7462 7461
4 7361 7362 7463 7462
4 7362 7363 7464 7463
4 7363 7364 7465 7464
4 7364 7365 7466 7465
4 7365 7366 7467 7466
4 7366 7367 7468 7467
4 7367 7368 7469 7468
4 7368 7369 7470 7469
4 7369 7370 7471 7470
4 7370 7371 7472 7471
4 7371 7372 7473 7472
4 7373 7374 7475 7474
4 7374 7375 7476 7475
4 7375 7376 7477 7476
4 7376 7377 7478 7477
4 7377 7378 7479 7478
4 7378 7379 7480 7479
4 7379 7380 7481 7480
4 7380 7381 7482 7481
4 7381 7382 7483 7482
4 7382 7383 7484 7483
4 7383 7384 7485 7484
4 7384 7385 7486 7485
4 7385 7386 7487 7486
4 7386 7387 7488 7487
4 7387 7388 7489 7488
4 7388 7389 7490 7489
4 7389 7390 7491 7490
4 7390 7391 7492 7491
4 7391 7392 7493 7492
4 7392 7393 7494 7493
4 7393 7394 7495 7494
4 7394 7395 7496 7495
4 7395 7396 7497 7496
4 7396 7397 7498 7497
4 7397 7398 7499 7498
4 7398 7399 7500 7499
4 7399 7400 7501 7500
4 7400 7401 7502 7501
4 7401 7402 7503 7502
4 7402 7403 7504 7503
4 7403 7404 7505 7504
4 7404 7405 7506 7505
4 7405 7406 7507 7506
4 7406 7407 7508 7507
4 7407 7408 7509 7508
4 7408 7409 7510 7509
4 7409 7410 7511 7510
4 7410 7411 7512 7511
4 7411 7412 7513 7512
4 7412 7413 7514 7513
4 7413 7414 7515 7514
4 7414 7415 7516 7515
4 7415 7416 7517 7516
4 7416 7417 7518 7517
4 7417 7418 7519 7518
4 7418 7419 7520 7519
4 7419 7420 7521 7520
4 7420 7421 7522 7521
4 7421 7422 7523 7522
4 7422 7423 7524 7523
4 7423 7424 7525 7524
4 7424 7425 7526 7525
4 7425 7426 7527 7526
4 7426 7427 7528 7527
4 7427 7428 7529 7528
4 7428 7429 7530 7529
4 7429 7430 7531 7530
4 7430 7431 7532 7531
4 7431 7432 7533 7532
4 7432 7433 7534 7533
4 7433 7434 7535 7534
4 7434 7435 7536 7535
4 7435 7436 7537 7536
4 7436 7437 7538 7537
4 7437 7438 7539 7538
4 7438 7439 7540 7539
4 7439 7440 7541 7540
4 7440 7441 7542 7541
4 7441 7442 7543 7542
4 7442 7443 7544 7543
4 7443 7444 7545 7544
4 7444 7445 7546 7545
4 7445 7446 7547 7546
4 7446 7447 7548 7547
4 7447 7448 7549 7548
4 7448 7449 7550 7549
4 7449 7450 7551 7550
4 7450 7451 7552 7551
4 7451 7452 7553 7552
4 7452 7453 7554 7553
4 7453 7454 7555 7554
4 7454 7455 7556 7555
4 7455 7456 7557 7556
4 7456 7457 7558 7557
4 7457 7458 7559 7558
4 7458 7459 7560 7559
4 7459 7460 7561 7560
4 7460 7461 7562 7561
4 7461 7462 7563 7562
4 7462 7463 7564 7563
4 7463 7464 7565 7564
4 7464 7465 7566 7565
4 7465 7466 7567 7566
4 7466 7467 7568 7567
4 7467 7468 7569 7568
4 7468 7469 7570 7569
4 7469 7470 7571 7570
4 7470 7471 7572 7571
4 7471 7472 7573 7572
4 7472 7473 7574 7573
4 7474 7475 7576 7575
4 7475 7476 7577 7576
4 7476 7477 7578 7577
4 7477 7478 7579 7578
4 7478 7479 7580 7579
4 7479 7480 7581 7580
4 7480 7481 7582 7581
4 7481 7482 7583 7582
4 7482 7483 7584 7583
4 7483 7484 7585 7584
4 7484 7485 7586 7585
4 7485 7486 7587 7586
4 7486 7487 7588 7587
4 7487 7488 7589 7588
4 7488 7489 7590 7589
4 7489 7490 7591 7590
4 7490 7491 7592 7591
4 7491 7492 7593 7592
4 7492 7493 7594 7593
4 7493 7494 7595 7594
4 7494 7495 7596 7595
4 7495 7496 7597 7596
4 7496 7497 7598 7597
4 7497 7498 7599 7598
4 7498 7499 7600 7599
4 7499 7500 7601 7600
4 7500 7501 7602 7601
4 7501 7502 7603 7602
4 7502 7503 7604 7603
4 7503 7504 7605 7604
4 7504 7505 7606 7605
4 7505 7506 7607 7606
4 7506 7507 7608 7607
4 7507 7508 7609 7608
4 7508 7509 7610 7609
4 7509 7510 7611 7610
4 7510 7511 7612 7611
4 7511 7512 7613 7612
4 7512 7513 7614 7613
4 7513 7514 7615 7614
4 7514 7515 7616 7615
4 7515 7516 7617 7616
4 7516 7517 7618 7617
4 7517 7518 7619 7618
4 7518 7519 7620 7619
4 7519 7520 7621 7620
4 7520 7521 7622 7621
4 7521 7522 7623 7622
4 7522 7523 7624 7623
4 7523 7524 7625 7624
4 7524 7525 7626 7625
4 7525 7526 7627 7626
4 7526 7527 7628 7627
4 7527 7528 7629 7628
4 7528 7529 7630 7629
4 7529 7530 7631 7630
4 7530 7531 7632 7631
4 7531 7532 7633 7632
4 7532 7533 7634 7633
4 7533 7534 7635 7634
4 7534 7535 7636 7635
4 7535 7536 7637 7636
4 7536 7537 7638 7637
4 7537 7538 7639 7638
4 7538 7539 7640 7639
4 7539 7540 7641 7640
4 7540 7541 7642 7641
4 7541 7542 7643 7642
4 7542 7543 7644 7643
4 7543 7544 7645 7644
4 7544 7545 7646 7645
4 7545 7546 7647 7646
4 7546 7547 7648 7647
4 7547 7548 7649 7648
4 7548 7549 7650 7649
4 7549 7550 7651 7650
4 7550 7551 7652 7651
4 7551 7552 7653 7652
4 7552 7553 7654 7653
4 7553 7554 7655 7654
4 7554 7555 7656 7655
4 7555 7556 7657 7656
4 7556 7557 7658 7657
4 7557 7558 7659 7658
4 7558 7559 7660 7659
4 7559 7560 7661 7660
4 7560 7561 7662 7661
4 7561 7562 7663 7662
4 7562 7563 7664 7663
4 7563 7564 7665 7664
4 7564 7565 7666 7665
4 7565 7566 7667 7666
4 7566 7567 7668 7667
4 7567 7568 7669 7668
4 7568 7569 7670 7669
4 7569 7570 7671 7670
4 7570 7571 7672 7671
4 7571 7572 7673 7672
4 7572 7573 7674 7673
4 7573 7574 7675 7674
4 7575 7576 7677 7676
4 7576 7577 7678 7677
4 7577 7578 7679 7678
4 7578 7579 7680 7679
4 7579 7580 7681 7680
4 7580 7581 7682 7681
4 7581 7582 7683 7682
4 7582 7583 7684 7683
4 7583 7584 7685 7684
4 7584 7585 7686 7685
4 7585 7586 7687 7686
4 7586 7587 7688 7687
4 7587 7588 7689 7688
4 7588 7589 7690 7689
4 7589 7590 7691 7690
4 7590 7591 7692 7691
4 7591 7592 7693 7692
4 7592 7593 7694 7693
4 7593 7594 7695 7694
4 7594 7595 7696 7695
4 7595 7596 7697 7696
4 7596 7597 7698 7697
4 7597 7598 7699 7698
4 7598 7599 7700 7699
4 7599 7600 7701 7700
4 7600 7601 7702 7701
4 7601 7602 7703 7702
4 7602 7603 7704 7703
4 7603 7604 7705 7704
4 7604 7605 7706 7705
4 7605 7606 7707 7706
4 7606 7607 7708 7707
4 7607 7608 7709 7708
4 7608 7609 7710 7709
4 7609 7610 7711 7710
4 7610 7611 7712 7711
4 7611 7612 7713 7712
4 7612 7613 7714 7713
4 7613 7614 7715 7714
4 7614 7615 7716 7715
4 7615 7616 7717 7716
4 7616 7617 7718 7717
4 7617 7618 7719 7718
4 7618 7619 7720 7719
4 7619 7620 7721 7720
4 7620 7621 7722 7721
4 7621 7622 7723 7722
4 7622 7623 7724 7723
4 7623 7624 7725 7724
4 7624 7625 7726 7725
4 7625 7626 7727 7726
4 7626 7627 7728 7727
4 7627 7628 7729 7728
4 7628 7629 7730 7729
4 7629 7630 7731 7730
4 7630 7631 7732 7731
4 7631 7632 7733 7732
4 7632 7633 7734 7733
4 7633 7634 7735 7734
4 7634 7635 7736 7735
4 7635 7636 7737 7736
4 7636 7637 7738 7737
4 7637 7638 7739 7738
4 7638 7639 7740 7739
4 7639 7640 7741 7740
4 7640 7641 7742 7741
4 7641 7642 7743 7742
4 7642 7643 7744 7743
4 7643 7644 7745 7744
4 7644 7645 7746 7745
4 7645 7646 7747 7746
4 7646 7647 7748 7747
4 7647 7648 7749 7748
4 7648 7649 7750 7749
4 7649 7650 7751 7750
4 7650 7651 7752 7751
4 7651 7652 7753 7752
4 7652 7653 7754 7753
4 7653 7654 7755 7754
4 7654 7655 7756 7755
4 7655 7656 7757 7756
4 7656 7657 7758 7757
4 7657 7658 7759 7758
4 7658 7659 7760 7759
4 7659 7660 7761 7760
4 7660 7661 7762 7761
4 7661 7662 7763 7762
4 7662 7663 7764 7763
4 7663 7664 7765 7764
4 7664 7665 7766 7765
4 7665 7666 7767 7766
4 7666 7667 7768 7767
4 7667 7668 7769 7768
4 7668 7669 7770 7769
4 7669 7670 7771 7770
4 7670 7671 7772 7771
4 7671 7672 7773 7772
4 7672 7673 7774 7773
4 7673 7674 7775 7774
4 7674 7675 7776 7775
4 7676 7677 7778 7777
4 7677 7678 7779 7778
4 7678 7679 7780 7779
4 7679 7680 7781 7780
4 7680 7681 7782 7781
4 7681 7682 7783 7782
4 7682 7683 7784 7783
4 7683 7684 7785 7784
4 7684 7685 7786 7785
4 7685 7686 7787 7786
4 7686 7687 7788 7787
4 7687 7688 7789 7788
4 7688 7689 7790 7789
4 7689 7690 7791 7790
4 7690 7691 7792 7791
4 7691 7692 7793 7792
4 7692 7693 7794 7793
4 7693 7694 7795 7794
4 7694 7695 7796 7795
4 7695 7696 7797 7796
4 7696 7697 7798 7797
4 7697 7698 7799 7798
4 7698 7699 7800 7799
4 7699 7700 7801 7800
4 7700 7701 7802 7801
4 7701 7702 7803 7802
4 7702 7703 7804 7803
4 7703 7704 7805 7804
4 7704 7705 7806 7805
4 7705 7706 7807 7806
4 7706 7707 7808 7807
4 7707 7708 7809 7808
4 7708 7709 7810 7809
4 7709 7710 7811 7810
4 7710 7711 7812 7811
4 7711 7712 7813 7812
4 7712 7713 7814 7813
4 7713 7714 7815 7814
4 7714 7715 7816 7815
4 7715 7716 7817 7816
4 7716 7717 7818 7817
4 7717 7718 7819 7818
4 7718 7719 7820 7819
4 7719 7720 7821 7820
4 7720 7721 7822 7821
4 7721 7722 7823 7822
4 7722 7723 7824 7823
4 7723 7724 7825 7824
4 7724 7725 7826 7825
4 7725 7726 7827 7826
4 7726 7727 7828 7827
4 7727 7728 7829 7828
4 7728 7729 7830 7829
4 7729 7730 7831 7830
4 7730 7731 7832 7831
4 7731 7732 7833 7832
4 7732 7733 7834 7833
4 7733 7734 7835 7834
4 7734 7735 7836 7835
4 7735 7736 7837 7836
4 7736 7737 7838 7837
4 7737 7738 7839 7838
4 7738 7739 7840 7839
4 7739 7740 7841 7840
4 7740 7741 7842 7841
4 7741 7742 7843 7842
4 7742 7743 7844 7843
4 7743 7744 7845 7844
4 7744 7745 7846 7845
4 7745 7746 7847 7846
4 7746 7747 7848 7847
4 7747 7748 7849 7848
4 7748 7749 7850 7849
4 7749 7750 7851 7850
4 7750 7751 7852 7851
4 7751 7752 7853 7852
4 7752 7753 7854 7853
4 7753 7754 7855 7854
4 7754 7755 7856 7855
4 7755 7756 7857 7856
4 7756 7757 7858 7857
4 7757 7758 7859 7858
4 7758 7759 7860 7859
4 7759 7760 7861 7860
4 7760 7761 7862 7861
4 7761 7762 7863 7862
4 7762 7763 7864 7863
4 7763 7764 7865 7864
4 7764 7765 7866 7865
4 7765 7766 7867 7866
4 7766 7767 7868 7867
4 7767 7768 7869 7868
4 7768 7769 7870 7869
4 7769 7770 7871 7870
4 7770 7771 7872 7871
4 7771 7772 7873 7872
4 7772 7773 7874 7873
4 7773 7774 7875 7874
4 7774 7775 7876 7875
4 7775 7776 7877 7876
4 7777 7778 7879 7878
4 7778 7779 7880 7879
4 7779 7780 7881 7880
4 7780 7781 7882 7881
4 7781 7782 7883 7882
4 7782 7783 7884 7883
4 7783 7784 7885 7884
4 7784 7785 7886 7885
4 7785 7786 7887 7886
4 7786 7787 7888 7887
4 7787 7788 7889 7888
4 7788 7789 7890 7889
4 7789 7790 7891 7890
4 7790 7791 7892 7891
4 7791 7792 7893 7892
4 7792 7793 7894 7893
4 7793 7794 7895 7894
4 7794 7795 7896 7895
4 7795 7796 7897 7896
4 7796 7797 7898 7897
4 7797 7798 7899 7898
4 7798 7799 7900 7899
4 7799 7800 7901 7900
4 7800 7801 7902 7901
4 7801 7802 7903 7902
4 7802 7803 7904 7903
4 7803 7804 7905 7904
4 7804 7805 7906 7905
4 7805 7806 7907 7906
4 7806 7807 7908 7907
4 7807 7808 7909 7908
4 7808 7809 7910 7909
4 7809 7810 7911 7910
4 7810 7811 7912 7911
4 7811 7812 7913 7912
4 7812 7813 7914 7913
4 7813 7814 7915 7914
4 7814 7815 7916 7915
4 7815 7816 7917 7916
4 7816 7817 7918 7917
4 7817 7818 7919 7918
4 7818 7819 7920 7919
4 7819 7820 7921 7920
4 7820 7821 7922 7921
4 7821 7822 7923 7922
4 7822 7823 7924 7923
4 7823 7824 7925 7924
4 7824 7825 7926 7925
4 7825 7826 7927 7926
4 7826 7827 7928 7927
4 7827 7828 7929 7928
4 7828 7829 7930 7929
4 7829 7830 7931 7930
4 7830 7831 7932 7931
4 7831 7832 7933 7932
4 7832 7833 7934 7933
4 7833 7834 7935 7934
4 7834 7835 7936 7935
4 7835 7836 7937 7936
4 7836 7837 7938 7937
4 7837 7838 7939 7938
4 7838 7839 7940 7939
4 7839 7840 7941 7940
4 7840 7841 7942 7941
4 7841 7842 7943 7942
4 7842 7843 7944 7943
4 7843 7844 7945 7944
4 7844 7845 7946 7945
4 7845 7846 7947 7946
4 7846 7847 7948 7947
4 7847 7848 7949 7948
4 7848 7849 7950 7949
4 7849 7850 7951 7950
4 7850 7851 7952 7951
4 7851 7852 7953 7952
4 7852 7853 7954 7953
4 7853 7854 7955 7954
4 7854 7855 7956 7955
4 7855 7856 7957 7956
4 7856 7857 7958 7957
4 7857 7858 7959 7958
4 7858 7859 7960 7959
4 7859 7860 7961 7960
4 7860 7861 7962 7961
4 7861 7862 7963 7962
4 7862 7863 7964 7963
4 7863 7864 7965 7964
4 7864 7865 7966 7965
4 7865 7866 7967 7966
4 7866 7867 7968 7967
4 7867 7868 7969 7968
4 7868 7869 7970 7969
4 7869 7870 7971 7970
4 7870 7871 7972 7971
4 7871 7872 7973 7972
4 7872 7873 7974 7973
4 7873 7874 7975 7974
4 7874 7875 7976 7975
4 7875 7876 7977 7976
4 7876 7877 7978 7977
4 7878 7879 7980 7979
4 7879 7880 7981 7980
4 7880 7881 7982 7981
4 7881 7882 7983 7982
4 7882 7883 7984 7983
4 7883 7884 7985 7984
4 7884 7885 7986 7985
4 7885 7886 7987 7986
4 7886 7887 7988 7987
4 7887 7888 7989 7988
4 7888 7889 7990 7989
4 7889 7890 7991 7990
4 7890 7891 7992 7991
4 7891 7892 7993 7992
4 7892 7893 7994 7993
4 7893 7894 7995 7994
4 7894 7895 7996 7995
4 7895 7896 7997 7996
4 7896 7897 7998 7997
4 7897 7898 7999 7998
4 7898 7899 8000 7999
4 7899 7900 8001 8000
4 7900 7901 8002 8001
4 7901 7902 8003 8002
4 7902 7903 8004 8003
4 7903 7904 8005 8004
4 7904 7905 8006 8005
4 7905 7906 8007 8006
4 7906 7907 8008 8007
4 7907 7908 8009 8008
4 7908 7909 8010 8009
4 7909 7910 8011 8010
4 7910 7911 8012 8011
4 7911 7912 8013 8012
4 7912 7913 8014 8013
4 7913 7914 8015 8014
4 7914 7915 8016 8015
4 7915 7916 8017 8016
4 7916 7917 8018 8017
4 7917 7918 8019 8018
4 7918 7919 8020 8019
4 7919 7920 8021 8020
4 7920 7921 8022 8021
4 7921 7922 8023 8022
4 7922 7923 8024 8023
4 7923 7924 8025 8024
4 7924 7925 8026 8025
4 7925 7926 8027 8026
4 7926 7927 8028 8027
4 7927 7928 8029 8028
4 7928 7929 8030 8029
4 7929 7930 8031 8030
4 7930 7931 8032 8031
4 7931 7932 8033 8032
4 7932 7933 8034 8033
4 7933 7934 8035 8034
4 7934 7935 8036 8035
4 7935 7936 8037 8036
4 7936 7937 8038 8037
4 7937 7938 8039 8038
4 7938 7939 8040 8039
4 7939 7940 8041 8040
4 7940 7941 8042 8041
4 7941 7942 8043 8042
4 7942 7943 8044 8043
4 7943 7944 8045 8044
4 7944 7945 8046 8045
4 7945 7946 8047 8046
4 7946 7947 8048 8047
4 7947 7948 8049 8048
4 7948 7949 8050 8049
4 7949 7950 8051 8050
4 7950 7951 8052 8051
4 7951 7952 8053 8052
4 7952 7953 8054 8053
4 7953 7954 8055 8054
4 7954 7955 8056 8055
4 7955 7956 8057 8056
4 7956 7957 8058 8057
4 7957 7958 8059 8058
4 7958 7959 8060 8059
4 7959 7960 8061 8060
4 7960 7961 8062 8061
4 7961 7962 8063 8062
4 7962 7963 8064 8063
4 7963 7964 8065 8064
4 7964 7965 8066 8065
4 7965 7966 8067 8066
4 7966 7967 8068 8067
4 7967 7968 8069 8068
4 7968 7969 8070 8069
4 7969 7970 8071 8070
4 7970 7971 8072 8071
4 7971 7972 8073 8072
4 7972 7973 8074 8073
4 7973 7974 8075 8074
4 7974 7975 8076 8075
4 7975 7976 8077 8076
4 7976 7977 8078 8077
4 7977 7978 8079 8078
4 7979 7980 8081 8080
4 7980 7981 8082 8081
4 7981 7982 8083 8082
4 7982 7983 8084 8083
4 7983 7984 8085 8084
4 7984 7985 8086 8085
4 7985 7986 8087 8086
4 7986 7987 8088 8087
4 7987 7988 8089 8088
4 7988 7989 8090 8089
4 7989 7990 8091 8090
4 7990 7991 8092 8091
4 7991 7992 8093 8092
4 7992 7993 8094 8093
4 7993 7994 8095 8094
4 7994 7995 8096 8095
4 7995 7996 8097 8096
4 7996 7997 8098 8097
4 7997 7998 8099 8098
4 7998 7999 8100 8099
4 7999 8000 8101 8100
4 8000 8001 8102 8101
4 8001 8002 8103 8102
4 8002 8003 8104 8103
4 8003 8004 8105 8104
4 8004 8005 8106 8105
4 8005 8006 8107 8106
4 8006 8007 8108 8107
4 8007 8008 8109 8108
4 8008 8009 8110 8109
4 8009 8010 8111 8110
4 8010 8011 8112 8111
4 8011 8012 8113 8112
4 8012 8013 8114 8113
4 8013 8014 8115 8114
4 8014 8015 8116 8115
4 8015 8016 8117 8116
4 8016 8017 8118 8117
4 8017 8018 8119 8118
4 8018 8019 8120 8119
4 8019 8020 8121 8120
4 8020 8021 8122 8121
4 8021 8022 8123 8122
4 8022 8023 8124 8123
4 8023 8024 8125 8124
4 8024 8025 8126 8125
4 8025 8026 8127 8126
4 8026 8027 8128 8127
4 8027 8028 8129 8128
4 8028 8029 8130 8129
4 8029 8030 8131 8130
4 8030 8031 8132 8131
4 8031 8032 8133 8132
4 8032 8033 8134 8133
4 8033 8034 8135 8134
4 8034 8035 8136 8135
4 8035 8036 8137 8136
4 8036 8037 8138 8137
4 8037 8038 8139 8138
4 8038 8039 8140 8139
4 8039 8040 8141 8140
4 8040 8041 8142 8141
4 8041 8042 8143 8142
4 8042 8043 8144 8143
4 8043 8044 8145 8144
4 8044 8045 8146 8145
4 8045 8046 8147 8146
4 8046 8047 8148 8147
4 8047 8048 8149 8148
4 8048 8049 8150 8149
4 8049 8050 8151 8150
4 8050 8051 8152 8151
4 8051 8052 8153 8152
4 8052 8053 8154 8153
4 8053 8054 8155 8154
4 8054 8055 8156 8155
4 8055 8056 8157 8156
4 8056 8057 8158 8157
4 8057 8058 8159 8158
4 8058 8059 8160 8159
4 8059 8060 8161 8160
4 8060 8061 8162 8161
4 8061 8062 8163 8162
4 8062 8063 8164 8163
4 8063 8064 8165 8164
4 8064 8065 8166 8165
4 8065 8066 8167 8166
4 8066 8067 8168 8167
4 8067 8068 8169 8168
4 8068 8069 8170 8169
4 8069 8070 8171 8170
4 8070 8071 8172 8171
4 8071 8072 8173 8172
4 8072 8073 8174 8173
4 8073 8074 8175 8174
4 8074 8075 8176 8175
4 8075 8076 8177 8176
4 8076 8077 8178 8177
4 8077 8078 8179 8178
4 8078 8079 8180 8179
4 8080 8081 8182 8181
4 8081 8082 8183 8182
4 8082 8083 8184 8183
4 8083 8084 8185 8184
4 8084 8085 8186 8185
4 8085 8086 8187 8186
4 8086 8087 8188 8187
4 8087 8088 8189 8188
4 8088 8089 8190 8189
4 8089 8090 8191 8190
4 8090 8091 8192 8191
4 8091 8092 8193 8192
4 8092 8093 8194 8193
4 8093 8094 8195 8194
4 8094 8095 8196 8195
4 8095 8096 8197 8196
4 8096 8097 8198 8197
4 8097 8098 8199 8198
4 8098 8099 8200 8199
4 8099 8100 8201 8200
4 8100 8101 8202 8201
4 8101 8102 8203 8202
4 8102 8103 8204 8203
4 8103 8104 8205 8204
4 8104 8105 8206 8205
4 8105 8106 8207 8206
4 8106 8107 8208 8207
4 8107 8108 8209 8208
4 8108 8109 8210 8209
4 8109 8110 8211 8210
4 8110 8111 8212 8211
4 8111 8112 8213 8212
4 8112 8113 8214 8213
4 8113 8114 8215 8214
4 8114 8115 8216 8215
4 8115 8116 8217 8216
4 8116 8117 8218 8217
4 8117 8118 8219 8218
4 8118 8119 8220 8219
4 8119 8120 8221 8220
4 8120 8121 8222 8221
4 8121 8122 8223 8222
4 8122 8123 8224 8223
4 8123 8124 8225 8224
4 8124 8125 8226 8225
4 8125 8126 8227 8226
4 8126 8127 8228 8227
4 8127 8128 8229 8228
4 8128 8129 8230 8229
4 8129 8130 8231 8230
4 8130 8131 8232 8231
4 8131 8132 8233 8232
4 8132 8133 8234 8233
4 8133 8134 8235 8234
4 8134 8135 8236 8235
4 8135 8136 8237 8236
4 8136 8137 8238 8237
4 8137 8138 8239 8238
4 8138 8139 8240 8239
4 8139 8140 8241 8240
4 8140 8141 8242 8241
4 8141 8142 8243 8242
4 8142 8143 8244 8243
4 8143 8144 8245 8244
4 8144 8145 8246 8245
4 8145 8146 8247 8246
4 8146 8147 8248 8247
4 8147 8148 8249 8248
4 8148 8149 8250 8249
4 8149 8150 8251 8250
4 8150 8151 8252 8251
4 8151 8152 8253 8252
4 8152 8153 8254 8253
4 8153 8154 8255 8254
4 8154 8155 8256 8255
4 8155 8156 8257 8256
4 8156 8157 8258 8257
4 8157 8158 8259 8258
4 8158 8159 8260 8259
4 8159 8160 8261 8260
4 8160 8161 8262 8261
4 8161 8162 8263 8262
4 8162 8163 8264 8263
4 8163 8164 8265 8264
4 8164 8165 8266 8265
4 8165 8166 8267 8266
4 8166 8167 8268 8267
4 8167 8168 8269 8268
4 8168 8169 8270 8269
4 8169 8170 8271 8270
4 8170 8171 8272 8271
4 8171 8172 8273 8272
4 8172 8173 8274 8273
4 8173 8174 8275 8274
4 8174 8175 8276 8275
4 8175 8176 8277 8276
4 8176 8177 8278 8277
4 8177 8178 8279 8278
4 8178 8179 8280 8279
4 8179 8180 8281 8280
4 8181 8182 8283 8282
4 8182 8183 8284 8283
4 8183 8184 8285 8284
4 8184 8185 8286 8285
4 8185 8186 8287 8286
4 8186 8187 8288 8287
4 8187 8188 8289 8288
4 8188 8189 8290 8289
4 8189 8190 8291 8290
4 8190 8191 8292 8291
4 8191 8192 8293 8292
4 8192 8193 8294 8293
4 8193 8194 8295 8294
4 8194 8195 8296 8295
4 8195 8196 8297 8296
4 8196 8197 8298 8297
4 8197 8198 8299 8298
4 8198 8199 8300 8299
4 8199 8200 8301 8300
4 8200 8201 8302 8301
4 8201 8202 8303 8302
4 8202 8203 8304 8303
4 8203 8204 8305 8304
4 8204 8205 8306 8305
4 8205 8206 8307 8306
4 8206 8207 8308 8307
4 8207 8208 8309 8308
4 8208 8209 8310 8309
4 8209 8210 8311 8310
4 8210 8211 8312 8311
4 8211 8212 8313 8312
4 8212 8213 8314 8313
4 8213 8214 8315 8314
4 8214 8215 8316 8315
4 8215 8216 8317 8316
4 8216 8217 8318 8317
4 8217 8218 8319 8318
4 8218 8219 8320 8319
4 8219 8220 8321 8320
4 8220 8221 8322 8321
4 8221 8222 8323 8322
4 8222 8223 8324 8323
4 8223 8224 8325 8324
4 8224 8225 8326 8325
4 8225 8226 8327 8326
4 8226 8227 8328 8327
4 8227 8228 8329 8328
4 8228 8229 8330 8329
4 8229 8230 8331 8330
4 8230 8231 8332 8331
4 8231 8232 8333 8332
4 8232 8233 8334 8333
4 8233 8234 8335 8334
4 8234 8235 8336 8335
4 8235 8236 8337 8336
4 8236 8237 8338 8337
4 8237 8238 8339 8338
4 8238 8239 8340 8339
4 8239 8240 8341 8340
4 8240 8241 8342 8341
4 8241 8242 8343 8342
4 8242 8243 8344 8343
4 8243 8244 8345 8344
4 8244 8245 8346 8345
4 8245 8246 8347 8346
4 8246 8247 8348 8347
4 8247 8248 8349 8348
4 8248 8249 8350 8349
4 8249 8250 8351 8350
4 8250 8251 8352 8351
4 8251 8252 8353 8352
4 8252 8253 8354 8353
4 8253 8254 8355 8354
4 8254 8255 8356 8355
4 8255 8256 8357 8356
4 8256 8257 8358 8357
4 8257 8258 8359 8358
4 8258 8259 8360 8359
4 8259 8260 8361 8360
4 8260 8261 8362 8361
4 8261 8262 8363 8362
4 8262 8263 8364 8363
4 8263 8264 8365 8364
4 8264 8265 8366 8365
4 8265 8266 8367 8366
4 8266 8267 8368 8367
4 8267 8268 8369 8368
4 8268 8269 8370 8369
4 8269 8270 8371 8370
4 8270 8271 8372 8371
4 8271 8272 8373 8372
4 8272 8273 8374 8373
4 8273 8274 8375 8374
4 8274 8275 8376 8375
4 8275 8276 8377 8376
4 8276 8277 8378 8377
4 8277 8278 8379 8378
4 8278 8279 8380 8379
4 8279 8280 8381 8380
4 8280 8281 8382 8381
4 8282 8283 8384 8383
4 8283 8284 8385 8384
4 8284 8285 8386 8385
4 8285 8286 8387 8386
4 8286 8287 8388 8387
4 8287 8288 8389 8388
4 8288 8289 8390 8389
4 8289 8290 8391 8390
4 8290 8291 8392 8391
4 8291 8292 8393 8392
4 8292 8293 8394 8393
4 8293 8294 8395 8394
4 8294 8295 8396 8395
4 8295 8296 8397 8396
4 8296 8297 8398 8397
4 8297 8298 8399 8398
4 8298 8299 8400 8399
4 8299 8300 8401 8400
4 8300 8301 8402 8401
4 8301 8302 8403 8402
4 8302 8303 8404 8403
4 8303 8304 8405 8404
4 8304 8305 8406 8405
4 8305 8306 8407 8406
4 8306 8307 8408 8407
4 8307 8308 8409 8408
4 8308 8309 8410 8409
4 8309 8310 8411 8410
4 8310 8311 8412 8411
4 8311 8312 8413 8412
4 8312 8313 8414 8413
4 8313 8314 8415 8414
4 8314 8315 8416 8415
4 8315 8316 8417 8416
4 8316 8317 8418 8417
4 8317 8318 8419 8418
4 8318 8319 8420 8419
4 8319 8320 8421 8420
4 8320 8321 8422 8421
4 8321 8322 8423 8422
4 8322 8323 8424 8423
4 8323 8324 8425 8424
4 8324 8325 8426 8425
4 8325 8326 8427 8426
4 8326 8327 8428 8427
4 8327 8328 8429 8428
4 8328 8329 8430 8429
4 8329 8330 8431 8430
4 8330 8331 8432 8431
4 8331 8332 8433 8432
4 8332 8333 8434 8433
4 8333 8334 8435 8434
4 8334 8335 8436 8435
4 8335 8336 8437 8436
4 8336 8337 8438 8437
4 8337 8338 8439 8438
4 8338 8339 8440 8439
4 8339 8340 8441 8440
4 8340 8341 8442 8441
4 8341 8342 8443 8442
4 8342 8343 8444 8443
4 8343 8344 8445 8444
4 8344 8345 8446 8445
4 8345 8346 8447 8446
4 8346 8347 8448 8447
4 8347 8348 8449 8448
4 8348 8349 8450 8449
4 8349 8350 8451 8450
4 8350 8351 8452 8451
4 8351 8352 8453 8452
4 8352 8353 8454 8453
4 8353 8354 8455 8454
4 8354 8355 8456 8455
4 8355 8356 8457 8456
4 8356 8357 8458 8457
4 8357 8358 8459 8458
4 8358 8359 8460 8459
4 8359 8360 8461 8460
4 8360 8361 8462 8461
4 8361 8362 8463 8462
4 8362 8363 8464 8463
4 8363 8364 8465 8464
4 8364 8365 8466 8465
4 8365 8366 8467 8466
4 8366 8367 8468 8467
4 8367 8368 8469 8468
4 8368 8369 8470 8469
4 8369 8370 8471 8470
4 8370 8371 8472 8471
4 8371 8372 8473 8472
4 8372 8373 8474 8473
4 8373 8374 8475 8474
4 8374 8375 8476 8475
4 8375 8376 8477 8476
4 8376 8377 8478 8477
4 8377 8378 8479 8478
4 8378 8379 8480 8479
4 8379 8380 8481 8480
4 8380 8381 8482 8481
4 8381 8382 8483 8482
4 8383 8384 8485 8484
4 8384 8385 8486 8485
4 8385 8386 8487 8486
4 8386 8387 8488 8487
4 8387 8388 8489 8488
4 8388 8389 8490 8489
4 8389 8390 8491 8490
4 8390 8391 8492 8491
4 8391 8392 8493 8492
4 8392 8393 8494 8493
4 8393 8394 8495 8494
4 8394 8395 8496 8495
4 8395 8396 8497 8496
4 8396 8397 8498 8497
4 8397 8398 8499 8498
4 8398 8399 8500 8499
4 8399 8400 8501 8500
4 8400 8401 8502 8501
4 8401 8402 8503 8502
4 8402 8403 8504 8503
4 8403 8404 8505 8504
4 8404 8405 8506 8505
4 8405 8406 8507 8506
4 8406 8407 8508 8507
4 8407 8408 8509 8508
4 8408 8409 8510 8509
4 8409 8410 8511 8510
4 8410 8411 8512 8511
4 8411 8412 8513 8512
4 8412 8413 8514 8513
4 8413 8414 8515 8514
4 8414 8415 8516 8515
4 8415 8416 8517 8516
4 8416 8417 8518 8517
4 8417 8418 8519 8518
4 8418 8419 8520 8519
4 8419 8420 8521 8520
4 8420 8421 8522 8521
4 8421 8422 8523 8522
4 8422 8423 8524 8523
4 8423 8424 8525 8524
4 8424 8425 8526 8525
4 8425 8426 8527 8526
4 8426 8427 8528 8527
4 8427 8428 8529 8528
4 8428 8429 8530 8529
4 8429 8430 8531 8530
4 8430 8431 8532 8531
4 8431 8432 8533 8532
4 8432 8433 8534 8533
4 8433 8434 8535 8534
4 8434 8435 8536 8535
4 8435 8436 8537 8536
4 8436 8437 8538 8537
4 8437 8438 8539 8538
4 8438 8439 8540 8539
4 8439 8440 8541 8540
4 8440 8441 8542 8541
4 8441 8442 8543 8542
4 8442 8443 8544 8543
4 8443 8444 8545 8544
4 8444 8445 8546 8545
4 8445 8446 8547 8546
4 8446 8447 8548 8547
4 8447 8448 8549 8548
4 8448 8449 8550 8549
4 8449 8450 8551 8550
4 8450 8451 8552 8551
4 8451 8452 8553 8552
4 8452 8453 8554 8553
4 8453 8454 8555 8554
4 8454 8455 8556 8555
4 8455 8456 8557 8556
4 8456 8457 8558 8557
4 8457 8458 8559 8558
4 8458 8459 8560 8559
4 8459 8460 8561 8560
4 8460 8461 8562 8561
4 8461 8462 8563 8562
4 8462 8463 8564 8563
4 8463 8464 8565 8564
4 8464 8465 8566 8565
4 8465 8466 8567 8566
4 8466 8467 8568 8567
4 8467 8468 8569 8568
4 8468 8469 8570 8569
4 8469 8470 8571 8570
4 8470 8471 8572 8571
4 8471 8472 8573 8572
4 8472 8473 8574 8573
4 8473 8474 8575 8574
4 8474 8475 8576 8575
4 8475 8476 8577 8576
4 8476 8477 8578 8577
4 8477 8478 8579 8578
4 8478 8479 8580 8579
4 8479 8480 8581 8580
4 8480 8481 8582 8581
4 8481 8482 8583 8582
4 8482 8483 8584 8583
4 8484 8485 8586 8585
4 8485 8486 8587 8586
4 8486 8487 8588 8587
4 8487 8488 8589 8588
4 8488 8489 8590 8589
4 8489 8490 8591 8590
4 8490 8491 8592 8591
4 8491 8492 8593 8592
4 8492 8493 8594 8593
4 8493 8494 8595 8594
4 8494 8495 8596 8595
4 8495 8496 8597 8596
4 8496 8497 8598 8597
4 8497 8498 8599 8598
4 8498 8499 8600 8599
4 8499 8500 8601 8600
4 8500 8501 8602 8601
4 8501 8502 8603 8602
4 8502 8503 8604 8603
4 8503 8504 8605 8604
4 8504 8505 8606 8605
4 8505 8506 8607 8606
4 8506 8507 8608 8607
4 8507 8508 8609 8608
4 8508 8509 8610 8609
4 8509 8510 8611 8610
4 8510 8511 8612 8611
4 8511 8512 8613 8612
4 8512 8513 8614 8613
4 8513 8514 8615 8614
4 8514 8515 8616 8615
4 8515 8516 8617 8616
4 8516 8517 8618 8617
4 8517 8518 8619 8618
4 8518 8519 8620 8619
4 8519 8520 8621 8620
4 8520 8521 8622 8621
4 8521 8522 8623 8622
4 8522 8523 8624 8623
4 8523 8524 8625 8624
4 8524 8525 8626 8625
4 8525 8526 8627 8626
4 8526 8527 8628 8627
4 8527 8528 8629 8628
4 8528 8529 8630 8629
4 8529 8530 8631 8630
4 8530 8531 8632 8631
4 8531 8532 8633 8632
4 8532 8533 8634 8633
4 8533 8534 8635 8634
4 8534 8535 8636 8635
4 8535 8536 8637 8636
4 8536 8537 8638 8637
4 8537 8538 8639 8638
4 8538 8539 8640 8639
4 8539 8540 8641 8640
4 8540 8541 8642 8641
4 8541 8542 8643 8642
4 8542 8543 8644 8643
4 8543 8544 8645 8644
4 8544 8545 8646 8645
4 8545 8546 8647 8646
4 8546 8547 8648 8647
4 8547 8548 8649 8648
4 8548 8549 8650 8649
4 8549 8550 8651 8650
4 8550 8551 8652 8651
4 8551 8552 8653 8652
4 8552 8553 8654 8653
4 8553 8554 8655 8654
4 8554 8555 8656 8655
4 8555 8556 8657 8656
4 8556 8557 8658 8657
4 8557 8558 8659 8658
4 8558 8559 8660 8659
4 8559 8560 8661 8660
4 8560 8561 8662 8661
4 8561 8562 8663 8662
4 8562 8563 8664 8663
4 8563 8564 8665 8664
4 8564 8565 8666 8665
4 8565 8566 8667 8666
4 8566 8567 8668 8667
4 8567 8568 8669 8668
4 8568 8569 8670 8669
4 8569 8570 8671 8670
4 8570 8571 8672 8671
4 8571 8572 8673 8672
4 8572 8573 8674 8673
4 8573 8574 8675 8674
4 8574 8575 8676 8675
4 8575 8576 8677 8676
4 8576 8577 8678 8677
4 8577 8578 8679 8678
4 8578 8579 8680 8679
4 8579 8580 8681 8680
4 8580 8581 8682 8681
4 8581 8582 8683 8682
4 8582 8583 8684 8683
4 8583 8584 8685 8684
4 8585 8586 8687 8686
4 8586 8587 8688 8687
4 8587 8588 8689 8688
4 8588 8589 8690 8689
4 8589 8590 8691 8690
4 8590 8591 8692 8691
4 8591 8592 8693 8692
4 8592 8593 8694 8693
4 8593 8594 8695 8694
4 8594 8595 8696 8695
4 8595 8596 8697 8696
4 8596 8597 8698 8697
4 8597 8598 8699 8698
4 8598 8599 8700 8699
4 8599 8600 8701 8700
4 8600 8601 8702 8701
4 8601 8602 8703 8702
4 8602 8603 8704 8703
4 8603 8604 8705 8704
4 8604 8605 8706 8705
4 8605 8606 8707 8706
4 8606 8607 8708 8707
4 8607 8608 8709 8708
4 8608 8609 8710 8709
4 8609 8610 8711 8710
4 8610 8611 8712 8711
4 8611 8612 8713 8712
4 8612 8613 8714 8713
4 8613 8614 8715 8714
4 8614 8615 8716 8715
4 8615 8616 8717 8716
4 8616 8617 8718 8717
4 8617 8618 8719 8718
4 8618 8619 8720 8719
4 8619 8620 8721 8720
4 8620 8621 8722 8721
4 8621 8622 8723 8722
4 8622 8623 8724 8723
4 8623 8624 8725 8724
4 8624 8625 8726 8725
4 8625 8626 8727 8726
4 8626 8627 8728 8727
4 8627 8628 8729 8728
4 8628 8629 8730 8729
4 8629 8630 8731 8730
4 8630 8631 8732 8731
4 8631 8632 8733 8732
4 8632 8633 8734 8733
4 8633 8634 8735 8734
4 8634 8635 8736 8735
4 8635 8636 8737 8736
4 8636 8637 8738 8737
4 8637 8638 8739 8738
4 8638 8639 8740 8739
4 8639 8640 8741 8740
4 8640 8641 8742 8741
4 8641 8642 8743 8742
4 8642 8643 8744 8743
4 8643 8644 8745 8744
4 8644 8645 8746 8745
4 8645 8646 8747 8746
4 8646 8647 8748 8747
4 8647 8648 8749 8748
4 8648 8649 8750 8749
4 8649 8650 8751 8750
4 8650 8651 8752 8751
4 8651 8652 8753 8752
4 8652 8653 8754 8753
4 8653 8654 8755 8754
4 8654 8655 8756 8755
4 8655 8656 8757 8756
4 8656 8657 8758 8757
4 8657 8658 8759 8758
4 8658 8659 8760 8759
4 8659 8660 8761 8760
4 8660 8661 8762 8761
4 8661 8662 8763 8762
4 8662 8663 8764 8763
4 8663 8664 8765 8764
4 8664 8665 8766 8765
4 8665 8666 8767 8766
4 8666 8667 8768 8767
4 8667 8668 8769 8768
4 8668 8669 8770 8769
4 8669 8670 8771 8770
4 8670 8671 8772 8771
4 8671 8672 8773 8772
4 8672 8673 8774 8773
4 8673 8674 8775 8774
4 8674 8675 8776 8775
4 8675 8676 8777 8776
4 8676 8677 8778 8777
4 8677 8678 8779 8778
4 8678 8679 8780 8779
4 8679 8680 8781 8780
4 8680 8681 8782 8781
4 8681 8682 8783 8782
4 8682 8683 8784 8783
4 8683 8684 8785 8784
4 8684 8685 8786 8785
4 8686 8687 8788 8787
4 8687 8688 8789 8788
4 8688 8689 8790 8789
4 8689 8690 8791 8790
4 8690 8691 8792 8791
4 8691 8692 8793 8792
4 8692 8693 8794 8793
4 8693 8694 8795 8794
4 8694 8695 8796 8795
4 8695 8696 8797 8796
4 8696 8697 8798 8797
4 8697 8698 8799 8798
4 8698 8699 8800 8799
4 8699 8700 8801 8800
4 8700 8701 8802 8801
4 8701 8702 8803 8802
4 8702 8703 8804 8803
4 8703 8704 8805 8804
4 8704 8705 8806 8805
4 8705 8706 8807 8806
4 8706 8707 8808 8807
4 8707 8708 8809 8808
4 8708 8709 8810 8809
4 8709 8710 8811 8810
4 8710 8711 8812 8811
4 8711 8712 8813 8812
4 8712 8713 8814 8813
4 8713 8714 8815 8814
4 8714 8715 8816 8815
4 8715 8716 8817 8816
4 8716 8717 8818 8817
4 8717 8718 8819 8818
4 8718 8719 8820 8819
4 8719 8720 8821 8820
4 8720 8721 8822 8821
4 8721 8722 8823 8822
4 8722 8723 8824 8823
4 8723 8724 8825 8824
4 8724 8725 8826 8825
4 8725 8726 8827 8826
4 8726 8727 8828 8827
4 8727 8728 8829 8828
4 8728 8729 8830 8829
4 8729 8730 8831 8830
4 8730 8731 8832 8831
4 8731 8732 8833 8832
4 8732 8733 8834 8833
4 8733 8734 8835 8834
4 8734 8735 8836 8835
4 8735 8736 8837 8836
4 8736 8737 8838 8837
4 8737 8738 8839 8838
4 8738 8739 8840 8839
4 8739 8740 8841 8840
4 8740 8741 8842 8841
4 8741 8742 8843 8842
4 8742 8743 8844 8843
4 8743 8744 8845 8844
4 8744 8745 8846 8845
4 8745 8746 8847 8846
4 8746 8747 8848 8847
4 8747 8748 8849 8848
4 8748 8749 8850 8849
4 8749 8750 8851 8850
4 8750 8751 8852 8851
4 8751 8752 8853 8852
4 8752 8753 8854 8853
4 8753 8754 8855 8854
4 8754 8755 8856 8855
4 8755 8756 8857 8856
4 8756 8757 8858 8857
4 8757 8758 8859 8858
4 8758 8759 8860 8859
4 8759 8760 8861 8860
4 8760 8761 8862 8861
4 8761 8762 8863 8862
4 8762 8763 8864 8863
4 8763 8764 8865 8864
4 8764 8765 8866 8865
4 8765 8766 8867 8866
4 8766 8767 8868 8867
4 8767 8768 8869 8868
4 8768 8769 8870 8869
4 8769 8770 8871 8870
4 8770 8771 8872 8871
4 8771 8772 8873 8872
4 8772 8773 8874 8873
4 8773 8774 8875 8874
4 8774 8775 8876 8875
4 8775 8776 8877 8876
4 8776 8777 8878 8877
4 8777 8778 8879 8878
4 8778 8779 8880 8879
4 8779 8780 8881 8880
4 8780 8781 8882 8881
4 8781 8782 8883 8882
4 8782 8783 8884 8883
4 8783 8784 8885 8884
4 8784 8785 8886 8885
4 8785 8786 8887 8886
4 8787 8788 8889 8888
4 8788 8789 8890 8889
4 8789 8790 8891 8890
4 8790 8791 8892 8891
4 8791 8792 8893 8892
4 8792 8793 8894 8893
4 8793 8794 8895 8894
4 8794 8795 8896 8895
4 8795 8796 8897 8896
4 8796 8797 8898 8897
4 8797 8798 8899 8898
4 8798 8799 8900 8899
4 8799 8800 8901 8900
4 8800 8801 8902 8901
4 8801 8802 8903 8902
4 8802 8803 8904 8903
4 8803 8804 8905 8904
4 8804 8805 8906 8905
4 8805 8806 8907 8906
4 8806 8807 8908 8907
4 8807 8808 8909 8908
4 8808 8809 8910 8909
4 8809 8810 8911 8910
4 8810 8811 8912 8911
4 8811 8812 8913 8912
4 8812 8813 8914 8913
4 8813 8814 8915 8914
4 8814 8815 8916 8915
4 8815 8816 8917 8916
4 8816 8817 8918 8917
4 8817 8818 8919 8918
4 8818 8819 8920 8919
4 8819 8820 8921 8920
4 8820 8821 8922 8921
4 8821 8822 8923 8922
4 8822 8823 8924 8923
4 8823 8824 8925 8924
4 8824 8825 8926 8925
4 8825 8826 8927 8926
4 8826 8827 8928 8927
4 8827 8828 8929 8928
4 8828 8829 8930 8929
4 8829 8830 8931 8930
4 8830 8831 8932 8931
4 8831 8832 8933 8932
4 8832 8833 8934 8933
4 8833 8834 8935 8934
4 8834 8835 8936 8935
4 8835 8836 8937 8936
4 8836 8837 8938 8937
4 8837 8838 8939 8938
4 8838 8839 8940 8939
4 8839 8840 8941 8940
4 8840 8841 8942 8941
4 8841 8842 8943 8942
4 8842 8843 8944 8943
4 8843 8844 8945 8944
4 8844 8845 8946 8945
4 8845 8846 8947 8946
4 8846 8847 8948 8947
4 8847 8848 8949 8948
4 8848 8849 8950 8949
4 8849 8850 8951 8950
4 8850 8851 8952 8951
4 8851 8852 8953 8952
4 8852 8853 8954 8953
4 8853 8854 8955 8954
4 8854 8855 8956 8955
4 8855 8856 8957 8956
4 8856 8857 8958 8957
4 8857 8858 8959 8958
4 8858 8859 8960 8959
4 8859 8860 8961 8960
4 8860 8861 8962 8961
4 8861 8862 8963 8962
4 8862 8863 8964 8963
4 8863 8864 8965 8964
4 8864 8865 8966 8965
4 8865 8866 8967 8966
4 8866 8867 8968 8967
4 8867 8868 8969 8968
4 8868 8869 8970 8969
4 8869 8870 8971 8970
4 8870 8871 8972 8971
4 8871 8872 8973 8972
4 8872 8873 8974 8973
4 8873 8874 8975 8974
4 8874 8875 8976 8975
4 8875 8876 8977 8976
4 8876 8877 8978 8977
4 8877 8878 8979 8978
4 8878 8879 8980 8979
4 8879 8880 8981 8980
4 8880 8881 8982 8981
4 8881 8882 8983 8982
4 8882 8883 8984 8983
4 8883 8884 8985 8984
4 8884 8885 8986 8985
4 8885 8886 8987 8986
4 8886 8887 8988 8987
4 8888 8889 8990 8989
4 8889 8890 8991 8990
4 8890 8891 8992 8991
4 8891 8892 8993 8992
4 8892 8893 8994 8993
4 8893 8894 8995 8994
4 8894 8895 8996 8995
4 8895 8896 8997 8996
4 8896 8897 8998 8997
4 8897 8898 8999 8998
4 8898 8899 9000 8999
4 8899 8900 9001 9000
4 8900 8901 9002 9001
4 8901 8902 9003 9002
4 8902 8903 9004 9003
4 8903 8904 9005 9004
4 8904 8905 9006 9005
4 8905 8906 9007 9006
4 8906 8907 9008 9007
4 8907 8908 9009 9008
4 8908 8909 9010 9009
4 8909 8910 9011 9010
4 8910 8911 9012 9011
4 8911 8912 9013 9012
4 8912 8913 9014 9013
4 8913 8914 9015 9014
4 8914 8915 9016 9015
4 8915 8916 9017 9016
4 8916 8917 9018 9017
4 8917 8918 9019 9018
4 8918 8919 9020 9019
4 8919 8920 9021 9020
4 8920 8921 9022 9021
4 8921 8922 9023 9022
4 8922 8923 9024 9023
4 8923 8924 9025 9024
4 8924 8925 9026 9025
4 8925 8926 9027 9026
4 8926 8927 9028 9027
4 8927 8928 9029 9028
4 8928 8929 9030 9029
4 8929 8930 9031 9030
4 8930 8931 9032 9031
4 8931 8932 9033 9032
4 8932 8933 9034 9033
4 8933 8934 9035 9034
4 8934 8935 9036 9035
4 8935 8936 9037 9036
4 8936 8937 9038 9037
4 8937 8938 9039 9038
4 8938 8939 9040 9039
4 8939 8940 9041 9040
4 8940 8941 9042 9041
4 8941 8942 9043 9042
4 8942 8943 9044 9043
4 8943 8944 9045 9044
4 8944 8945 9046 9045
4 8945 8946 9047 9046
4 8946 8947 9048 9047
4 8947 8948 9049 9048
4 8948 8949 9050 9049
4 8949 8950 9051 9050
4 8950 8951 9052 9051
4 8951 8952 9053 9052
4 8952 8953 9054 9053
4 8953 8954 9055 9054
4 8954 8955 9056 9055
4 8955 8956 9057 9056
4 8956 8957 9058 9057
4 8957 8958 9059 9058
4 8958 8959 9060 9059
4 8959 8960 9061 9060
4 8960 8961 9062 9061
4 8961 8962 9063 9062
4 8962 8963 9064 9063
4 8963 8964 9065 9064
4 8964 8965 9066 9065
4 8965 8966 9067 9066
4 8966 8967 9068 9067
4 8967 8968 9069 9068
4 8968 8969 9070 9069
4 8969 8970 9071 9070
4 8970 8971 9072 9071
4 8971 8972 9073 9072
4 8972 8973 9074 9073
4 8973 8974 9075 9074
4 8974 8975 9076 9075
4 8975 8976 9077 9076
4 8976 8977 9078 9077
4 8977 8978 9079 9078
4 8978 8979 9080 9079
4 8979 8980 9081 9080
4 8980 8981 9082 9081
4 8981 8982 9083 9082
4 8982 8983 9084 9083
4 8983 8984 9085 9084
4 8984 8985 9086 9085
4 8985 8986 9087 9086
4 8986 8987 9088 9087
4 8987 8988 9089 9088
4 8989 8990 9091 9090
4 8990 8991 9092 9091
4 8991 8992 9093 9092
4 8992 8993 9094 9093
4 8993 8994 9095 9094
4 8994 8995 9096 9095
4 8995 8996 9097 9096
4 8996 8997 9098 9097
4 8997 8998 9099 9098
4 8998 8999 9100 9099
4 8999 9000 9101 9100
4 9000 9001 9102 9101
4 9001 9002 9103 9102
4 9002 9003 9104 9103
4 9003 9004 9105 9104
4 9004 9005 9106 9105
4 9005 9006 9107 9106
4 9006 9007 9108 9107
4 9007 9008 9109 9108
4 9008 9009 9110 9109
4 9009 9010 9111 9110
4 9010 9011 9112 9111
4 9011 9012 9113 9112
4 9012 9013 9114 9113
4 9013 9014 9115 9114
4 9014 9015 9116 9115
4 9015 9016 9117 9116
4 9016 9017 9118 9117
4 9017 9018 9119 9118
4 9018 9019 9120 9119
4 9019 9020 9121 9120
4 9020 9021 9122 9121
4 9021 9022 9123 9122
4 9022 9023 9124 9123
4 9023 9024 9125 9124
4 9024 9025 9126 9125
4 9025 9026 9127 9126
4 9026 9027 9128 9127
4 9027 9028 9129 9128
4 9028 9029 9130 9129
4 9029 9030 9131 9130
4 9030 9031 9132 9131
4 9031 9032 9133 9132
4 9032 9033 9134 9133
4 9033 9034 9135 9134
4 9034 9035 9136 9135
4 9035 9036 9137 9136
4 9036 9037 9138 9137
4 9037 9038 9139 9138
4 9038 9039 9140 9139
4 9039 9040 9141 9140
4 9040 9041 9142 9141
4 9041 9042 9143 9142
4 9042 9043 9144 9143
4 9043 9044 9145 9144
4 9044 9045 9146 9145
4 9045 9046 9147 9146
4 9046 9047 9148 9147
4 9047 9048 9149 9148
4 9048 9049 9150 9149
4 9049 9050 9151 9150
4 9050 9051 9152 9151
4 9051 9052 9153 9152
4 9052 9053 9154 9153
4 9053 9054 9155 9154
4 9054 9055 9156 9155
4 9055 9056 9157 9156
4 9056 9057 9158 9157
4 9057 9058 9159 9158
4 9058 9059 9160 9159
4 9059 9060 9161 9160
4 9060 9061 9162 9161
4 9061 9062 9163 9162
4 9062 9063 9164 9163
4 9063 9064 9165 9164
4 9064 9065 9166 9165
4 9065 9066 9167 9166
4 9066 9067 9168 9167
4 9067 9068 9169 9168
4 9068 9069 9170 9169
4 9069 9070 9171 9170
4 9070 9071 9172 9171
4 9071 9072 9173 9172
4 9072 9073 9174 9173
4 9073 9074 9175 9174
4 9074 9075 9176 9175
4 9075 9076 9177 9176
4 9076 9077 9178 9177
4 9077 9078 9179 9178
4 9078 9079 9180 9179
4 9079 9080 9181 9180
4 9080 9081 9182 9181
4 9081 9082 9183 9182
4 9082 9083 9184 9183
4 9083 9084 9185 9184
4 9084 9085 9186 9185
4 9085 9086 9187 9186
4 9086 9087 9188 9187
4 9087 9088 9189 9188
4 9088 9089 9190 9189
4 9090 9091 9192 9191
4 9091 9092 9193 9192
4 9092 9093 9194 9193
4 9093 9094 9195 9194
4 9094 9095 9196 9195
4 9095 9096 9197 9196
4 9096 9097 9198 9197
4 9097 9098 9199 9198
4 9098 9099 9200 9199
4 9099 9100 9201 9200
4 9100 9101 9202 9201
4 9101 9102 9203 9202
4 9102 9103 9204 9203
4 9103 9104 9205 9204
4 9104 9105 9206 9205
4 9105 9106 9207 9206
4 9106 9107 9208 9207
4 9107 9108 9209 9208
4 9108 9109 9210 9209
4 9109 9110 9211 9210
4 9110 9111 9212 9211
4 9111 9112 9213 9212
4 9112 9113 9214 9213
4 9113 9114 9215 9214
4 9114 9115 9216 9215
4 9115 9116 9217 9216
4 9116 9117 9218 9217
4 9117 9118 9219 9218
4 9118 9119 9220 9219
4 9119 9120 9221 9220
4 9120 9121 9222 9221
4 9121 9122 9223 9222
4 9122 9123 9224 9223
4 9123 9124 9225 9224
4 9124 9125 9226 9225
4 9125 9126 9227 9226
4 9126 9127 9228 9227
4 9127 9128 9229 9228
4 9128 9129 9230 9229
4 9129 9130 9231 9230
4 9130 9131 9232 9231
4 9131 9132 9233 9232
4 9132 9133 9234 9233
4 9133 9134 9235 9234
4 9134 9135 9236 9235
4 9135 9136 9237 9236
4 9136 9137 9238 9237
4 9137 9138 9239 9238
4 9138 9139 9240 9239
4 9139 9140 9241 9240
4 9140 9141 9242 9241
4 9141 9142 9243 9242
4 9142 9143 9244 9243
4 9143 9144 9245 9244
4 9144 9145 9246 9245
4 9145 9146 9247 9246
4 9146 9147 9248 9247
4 9147 9148 9249 9248
4 9148 9149 9250 9249
4 9149 9150 9251 9250
4 9150 9151 9252 9251
4 9151 9152 9253 9252
4 9152 9153 9254 9253
4 9153 9154 9255 9254
4 9154 9155 9256 9255
4 9155 9156 9257 9256
4 9156 9157 9258 9257
4 9157 9158 9259 9258
4 9158 9159 9260 9259
4 9159 9160 9261 9260
4 9160 9161 9262 9261
4 9161 9162 9263 9262
4 9162 9163 9264 9263
4 9163 9164 9265 9264
4 9164 9165 9266 9265
4 9165 9166 9267 9266
4 9166 9167 9268 9267
4 9167 9168 9269 9268
4 9168 9169 9270 9269
4 9169 9170 9271 9270
4 9170 9171 9272 9271
4 9171 9172 9273 9272
4 9172 9173 9274 9273
4 9173 9174 9275 9274
4 9174 9175 9276 9275
4 9175 9176 9277 9276
4 9176 9177 9278 9277
4 9177 9178 9279 9278
4 9178 9179 9280 9279
4 9179 9180 9281 9280
4 9180 9181 9282 9281
4 9181 9182 9283 9282
4 9182 9183 9284 9283
4 9183 9184 9285 9284
4 9184 9185 9286 9285
4 9185 9186 9287 9286
4 9186 9187 9288 9287
4 9187 9188 9289 9288
4 9188 9189 9290 9289
4 9189 9190 9291 9290
4 9191 9192 9293 9292
4 9192 9193 9294 9293
4 9193 9194 9295 9294
4 9194 9195 9296 9295
4 9195 9196 9297 9296
4 9196 9197 9298 9297
4 9197 9198 9299 9298
4 9198 9199 9300 9299
4 9199 9200 9301 9300
4 9200 9201 9302 9301
4 9201 9202 9303 9302
4 9202 9203 9304 9303
4 9203 9204 9305 9304
4 9204 9205 9306 9305
4 9205 9206 9307 9306
4 9206 9207 9308 9307
4 9207 9208 9309 9308
4 9208 9209 9310 9309
4 9209 9210 9311 9310
4 9210 9211 9312 9311
4 9211 9212 9313 9312
4 9212 9213 9314 9313
4 9213 9214 9315 9314
4 9214 9215 9316 9315
4 9215 9216 9317 9316
4 9216 9217 9318 9317
4 9217 9218 9319 9318
4 9218 9219 9320 9319
4 9219 9220 9321 9320
4 9220 9221 9322 9321
4 9221 9222 9323 9322
4 9222 9223 9324 9323
4 9223 9224 9325 9324
4 9224 9225 9326 9325
4 9225 9226 9327 9326
4 9226 9227 9328 9327
4 9227 9228 9329 9328
4 9228 9229 9330 9329
4 9229 9230 9331 9330
4 9230 9231 9332 9331
4 9231 9232 9333 9332
4 9232 9233 9334 9333
4 9233 9234 9335 9334
4 9234 9235 9336 9335
4 9235 9236 9337 9336
4 9236 9237 9338 9337
4 9237 9238 9339 9338
4 9238 9239 9340 9339
4 9239 9240 9341 9340
4 9240 9241 9342 9341
4 9241 9242 9343 9342
4 9242 9243 9344 9343
4 9243 9244 9345 9344
4 9244 9245 9346 9345
4 9245 9246 9347 9346
4 9246 9247 9348 9347
4 9247 9248 9349 9348
4 9248 9249 9350 9349
4 9249 9250 9351 9350
4 9250 9251 9352 9351
4 9251 9252 9353 9352
4 9252 9253 9354 9353
4 9253 9254 9355 9354
4 9254 9255 9356 9355
4 9255 9256 9357 9356
4 9256 9257 9358 9357
4 9257 9258 9359 9358
4 9258 9259 9360 9359
4 9259 9260 9361 9360
4 9260 9261 9362 9361
4 9261 9262 9363 9362
4 9262 9263 9364 9363
4 9263 9264 9365 9364
4 9264 9265 9366 9365
4 9265 9266 9367 9366
4 9266 9267 9368 9367
4 9267 9268 9369 9368
4 9268 9269 9370 9369
4 9269 9270 9371 9370
4 9270 9271 9372 9371
4 9271 9272 9373 9372
4 9272 9273 9374 9373
4 9273 9274 9375 9374
4 9274 9275 9376 9375
4 9275 9276 9377 9376
4 9276 9277 9378 9377
4 9277 9278 9379 9378
4 9278 9279 9380 9379
4 9279 9280 9381 9380
4 9280 9281 9382 9381
4 9281 9282 9383 9382
4 9282 9283 9384 9383
4 9283 9284 9385 9384
4 9284 9285 9386 9385
4 9285 9286 9387 9386
4 9286 9287 9388 9387
4 9287 9288 9389 9388
4 9288 9289 9390 9389
4 9289 9290 9391 9390
4 9290 9291 9392 9391
4 9292 9293 9394 9393
4 9293 9294 9395 9394
4 9294 9295 9396 9395
4 9295 9296 9397 9396
4 9296 9297 9398 9397
4 9297 9298 9399 9398
4 9298 9299 9400 9399
4 9299 9300 9401 9400
4 9300 9301 9402 9401
4 9301 9302 9403 9402
4 9302 9303 9404 9403
4 9303 9304 9405 9404
4 9304 9305 9406 9405
4 9305 9306 9407 9406
4 9306 9307 9408 9407
4 9307 9308 9409 9408
4 9308 9309 9410 9409
4 9309 9310 9411 9410
4 9310 9311 9412 9411
4 9311 9312 9413 9412
4 9312 9313 9414 9413
4 9313 9314 9415 9414
4 9314 9315 9416 9415
4 9315 9316 9417 9416
4 9316 9317 9418 9417
4 9317 9318 9419 9418
4 9318 9319 9420 9419
4 9319 9320 9421 9420
4 9320 9321 9422 9421
4 9321 9322 9423 9422
4 9322 9323 9424 9423
4 9323 9324 9425 9424
4 9324 9325 9426 9425
4 9325 9326 9427 9426
4 9326 9327 9428 9427
4 9327 9328 9429 9428
4 9328 9329 9430 9429
4 9329 9330 9431 9430
4 9330 9331 9432 9431
4 9331 9332 9433 9432
4 9332 9333 9434 9433
4 9333 9334 9435 9434
4 9334 9335 9436 9435
4 9335 9336 9437 9436
4 9336 9337 9438 9437
4 9337 9338 9439 9438
4 9338 9339 9440 9439
4 9339 9340 9441 9440
4 9340 9341 9442 9441
4 9341 9342 9443 9442
4 9342 9343 9444 9443
4 9343 9344 9445 9444
4 9344 9345 9446 9445
4 9345 9346 9447 9446
4 9346 9347 9448 9447
4 9347 9348 9449 9448
4 9348 9349 9450 9449
4 9349 9350 9451 9450
4 9350 9351 9452 9451
4 9351 9352 9453 9452
4 9352 9353 9454 9453
4 9353 9354 9455 9454
4 9354 9355 9456 9455
4 9355 9356 9457 9456
4 9356 9357 9458 9457
4 9357 9358 9459 9458
4 9358 9359 9460 9459
4 9359 9360 9461 9460
4 9360 9361 9462 9461
4 9361 9362 9463 9462
4 9362 9363 9464 9463
4 9363 9364 9465 9464
4 9364 9365 9466 9465
4 9365 9366 9467 9466
4 9366 9367 9468 9467
4 9367 9368 9469 9468
4 9368 9369 9470 9469
4 9369 9370 9471 9470
4 9370 9371 9472 9471
4 9371 9372 9473 9472
4 9372 9373 9474 9473
4 9373 9374 9475 9474
4 9374 9375 9476 9475
4 9375 9376 9477 9476
4 9376 9377 9478 9477
4 9377 9378 9479 9478
4 9378 9379 9480 9479
4 9379 9380 9481 9480
4 9380 9381 9482 9481
4 9381 9382 9483 9482
4 9382 9383 9484 9483
4 9383 9384 9485 9484
4 9384 9385 9486 9485
4 9385 9386 9487 9486
4 9386 9387 9488 9487
4 9387 9388 9489 9488
4 9388 9389 9490 9489
4 9389 9390 9491 9490
4 9390 9391 9492 9491
4 9391 9392 9493 9492
4 9393 9394 9495 9494
4 9394 9395 9496 9495
4 9395 9396 9497 9496
4 9396 9397 9498 9497
4 9397 9398 9499 9498
4 9398 9399 9500 9499
4 9399 9400 9501 9500
4 9400 9401 9502 9501
4 9401 9402 9503 9502
4 9402 9403 9504 9503
4 9403 9404 9505 9504
4 9404 9405 9506 9505
4 9405 9406 9507 9506
4 9406 9407 9508 9507
4 9407 9408 9509 9508
4 9408 9409 9510 9509
4 9409 9410 9511 9510
4 9410 9411 9512 9511
4 9411 9412 9513 9512
4 9412 9413 9514 9513
4 9413 9414 9515 9514
4 9414 9415 9516 9515
4 9415 9416 9517 9516
4 9416 9417 9518 9517
4 9417 9418 9519 9518
4 9418 9419 9520 9519
4 9419 9420 9521 9520
4 9420 9421 9522 9521
4 9421 9422 9523 9522
4 9422 9423 9524 9523
4 9423 9424 9525 9524
4 9424 9425 9526 9525
4 9425 9426 9527 9526
4 9426 9427 9528 9527
4 9427 9428 9529 9528
4 9428 9429 9530 9529
4 9429 9430 9531 9530
4 9430 9431 9532 9531
4 9431 9432 9533 9532
4 9432 9433 9534 9533
4 9433 9434 9535 9534
4 9434 9435 9536 9535
4 9435 9436 9537 9536
4 9436 9437 9538 9537
4 9437 9438 9539 9538
4 9438 9439 9540 9539
4 9439 9440 9541 9540
4 9440 9441 9542 9541
4 9441 9442 9543 9542
4 9442 9443 9544 9543
4 9443 9444 9545 9544
4 9444 9445 9546 9545
4 9445 9446 9547 9546
4 9446 9447 9548 9547
4 9447 9448 9549 9548
4 9448 9449 9550 9549
4 9449 9450 9551 9550
4 9450 9451 9552 9551
4 9451 9452 9553 9552
4 9452 9453 9554 9553
4 9453 9454 9555 9554
4 9454 9455 9556 9555
4 9455 9456 9557 9556
4 9456 9457 9558 9557
4 9457 9458 9559 9558
4 9458 9459 9560 9559
4 9459 9460 9561 9560
4 9460 9461 9562 9561
4 9461 9462 9563 9562
4 9462 9463 9564 9563
4 9463 9464 9565 9564
4 9464 9465 9566 9565
4 9465 9466 9567 9566
4 9466 9467 9568 9567
4 9467 9468 9569 9568
4 9468 9469 9570 9569
4 9469 9470 9571 9570
4 9470 9471 9572 9571
4 9471 9472 9573 9572
4 9472 9473 9574 9573
4 9473 9474 9575 9574
4 9474 9475 9576 9575
4 9475 9476 9577 9576
4 9476 9477 9578 9577
4 9477 9478 9579 9578
4 9478 9479 9580 9579
4 9479 9480 9581 9580
4 9480 9481 9582 9581
4 9481 9482 9583 9582
4 9482 9483 9584 9583
4 9483 9484 9585 9584
4 9484 9485 9586 9585
4 9485 9486 9587 9586
4 9486 9487 9588 9587
4 9487 9488 9589 9588
4 9488 9489 9590 9589
4 9489 9490 9591 9590
4 9490 9491 9592 9591
4 9491 9492 9593 9592
4 9492 9493 9594 9593
4 9494 9495 9596 9595
4 9495 9496 9597 9596
4 9496 9497 9598 9597
4 9497 9498 9599 9598
4 9498 9499 9600 9599
4 9499 9500 9601 9600
4 9500 9501 9602 9601
4 9501 9502 9603 9602
4 9502 9503 9604 9603
4 9503 9504 9605 9604
4 9504 9505 9606 9605
4 9505 9506 9607 9606
4 9506 9507 9608 9607
4 9507 9508 9609 9608
4 9508 9509 9610 9609
4 9509 9510 9611 9610
4 9510 9511 9612 9611
4 9511 9512 9613 9612
4 9512 9513 9614 9613
4 9513 9514 9615 9614
4 9514 9515 9616 9615
4 9515 9516 9617 9616
4 9516 9517 9618 9617
4 9517 9518 9619 9618
4 9518 9519 9620 9619
4 9519 9520 9621 9620
4 9520 9521 9622 9621
4 9521 9522 9623 9622
4 9522 9523 9624 9623
4 9523 9524 9625 9624
4 9524 9525 9626 9625
4 9525 9526 9627 9626
4 9526 9527 9628 9627
4 9527 9528 9629 9628
4 9528 9529 9630 9629
4 9529 9530 9631 9630
4 9530 9531 9632 9631
4 9531 9532 9633 9632
4 9532 9533 9634 9633
4 9533 9534 9635 9634
4 9534 9535 9636 9635
4 9535 9536 9637 9636
4 9536 9537 9638 9637
4 9537 9538 9639 9638
4 9538 9539 9640 9639
4 9539 9540 9641 9640
4 9540 9541 9642 9641
4 9541 9542 9643 9642
4 9542 9543 9644 9643
4 9543 9544 9645 9644
4 9544 9545 9646 9645
4 9545 9546 9647 9646
4 9546 9547 9648 9647
4 9547 9548 9649 9648
4 9548 9549 9650 9649
4 9549 9550 9651 9650
4 9550 9551 9652 9651
4 9551 9552 9653 9652
4 9552 9553 9654 9653
4 9553 9554 9655 9654
4 9554 9555 9656 9655
4 9555 9556 9657 9656
4 9556 9557 9658 9657
4 9557 9558 9659 9658
4 9558 9559 9660 9659
4 9559 9560 9661 9660
4 9560 9561 9662 9661
4 9561 9562 9663 9662
4 9562 9563 9664 9663
4 9563 9564 9665 9664
4 9564 9565 9666 9665
4 9565 9566 9667 9666
4 9566 9567 9668 9667
4 9567 9568 9669 9668
4 9568 9569 9670 9669
4 9569 9570 9671 9670
4 9570 9571 9672 9671
4 9571 9572 9673 9672
4 9572 9573 9674 9673
4 9573 9574 9675 9674
4 9574 9575 9676 9675
4 9575 9576 9677 9676
4 9576 9577 9678 9677
4 9577 9578 9679 9678
4 9578 9579 9680 9679
4 9579 9580 9681 9680
4 9580 9581 9682 9681
4 9581 9582 9683 9682
4 9582 9583 9684 9683
4 9583 9584 9685 9684
4 9584 9585 9686 9685
4 9585 9586 9687 9686
4 9586 9587 9688 9687
4 9587 9588 9689 9688
4 9588 9589 9690 9689
4 9589 9590 9691 9690
4 9590 9591 9692 9691
4 9591 9592 9693 9692
4 9592 9593 9694 9693
4 9593 9594 9695 9694
4 9595 9596 9697 9696
4 9596 9597 9698 9697
4 9597 9598 9699 9698
4 9598 9599 9700 9699
4 9599 9600 9701 9700
4 9600 9601 9702 9701
4 9601 9602 9703 9702
4 9602 9603 9704 9703
4 9603 9604 9705 9704
4 9604 9605 9706 9705
4 9605 9606 9707 9706
4 9606 9607 9708 9707
4 9607 9608 9709 9708
4 9608 9609 9710 9709
4 9609 9610 9711 9710
4 9610 9611 9712 9711
4 9611 9612 9713 9712
4 9612 9613 9714 9713
4 9613 9614 9715 9714
4 9614 9615 9716 9715
4 9615 9616 9717 9716
4 9616 9617 9718 9717
4 9617 9618 9719 9718
4 9618 9619 9720 9719
4 9619 9620 9721 9720
4 9620 9621 9722 9721
4 9621 9622 9723 9722
4 9622 9623 9724 9723
4 9623 9624 9725 9724
4 9624 9625 9726 9725
4 9625 9626 9727 9726
4 9626 9627 9728 9727
4 9627 9628 9729 9728
4 9628 9629 9730 9729
4 9629 9630 9731 9730
4 9630 9631 9732 9731
4 9631 9632 9733 9732
4 9632 9633 9734 9733
4 9633 9634 9735 9734
4 9634 9635 9736 9735
4 9635 9636 9737 9736
4 9636 9637 9738 9737
4 9637 9638 9739 9738
4 9638 9639 9740 9739
4 9639 9640 9741 9740
4 9640 9641 9742 9741
4 9641 9642 9743 9742
4 9642 9643 9744 9743
4 9643 9644 9745 9744
4 9644 9645 9746 9745
4 9645 9646 9747 9746
4 9646 9647 9748 9747
4 9647 9648 9749 9748
4 9648 9649 9750 9749
4 9649 9650 9751 9750
4 9650 9651 9752 9751
4 9651 9652 9753 9752
4 9652 9653 9754 9753
4 9653 9654 9755 9754
4 9654 9655 9756 9755
4 9655 9656 9757 9756
4 9656 9657 9758 9757
4 9657 9658 9759 9758
4 9658 9659 9760 9759
4 9659 9660 9761 9760
4 9660 9661 9762 9761
4 9661 9662 9763 9762
4 9662 9663 9764 9763
4 9663 9664 9765 9764
4 9664 9665 9766 9765
4 9665 9666 9767 9766
4 9666 9667 9768 9767
4 9667 9668 9769 9768
4 9668 9669 9770 9769
4 9669 9670 9771 9770
4 9670 9671 9772 9771
4 9671 9672 9773 9772
4 9672 9673 9774 9773
4 9673 9674 9775 9774
4 9674 9675 9776 9775
4 9675 9676 9777 9776
4 9676 9677 9778 9777
4 9677 9678 9779 9778
4 9678 9679 9780 9779
4 9679 9680 9781 9780
4 9680 9681 9782 9781
4 9681 9682 9783 9782
4 9682 9683 9784 9783
4 9683 9684 9785 9784
4 9684 9685 9786 9785
4 9685 9686 9787 9786
4 9686 9687 9788 9787
4 9687 9688 9789 9788
4 9688 9689 9790 9789
4 9689 9690 9791 9790
4 9690 9691 9792 9791
4 9691 9692 9793 9792
4 9692 9693 9794 9793
4 9693 9694 9795 9794
4 9694 9695 9796 9795
4 9696 9697 9798 9797
4 9697 9698 9799 9798
4 9698 9699 9800 9799
4 9699 9700 9801 9800
4 9700 9701 9802 9801
4 9701 9702 9803 9802
4 9702 9703 9804 9803
4 9703 9704 9805 9804
4 9704 9705 9806 9805
4 9705 9706 9807 9806
4 9706 9707 9808 9807
4 9707 9708 9809 9808
4 9708 9709 9810 9809
4 9709 9710 9811 9810
4 9710 9711 9812 9811
4 9711 9712 9813 9812
4 9712 9713 9814 9813
4 9713 9714 9815 9814
4 9714 9715 9816 9815
4 9715 9716 9817 9816
4 9716 9717 9818 9817
4 9717 9718 9819 9818
4 9718 9719 9820 9819
4 9719 9720 9821 9820
4 9720 9721 9822 9821
4 9721 9722 9823 9822
4 9722 9723 9824 9823
4 9723 9724 9825 9824
4 9724 9725 9826 9825
4 9725 9726 9827 9826
4 9726 9727 9828 9827
4 9727 9728 9829 9828
4 9728 9729 9830 9829
4 9729 9730 9831 9830
4 9730 9731 9832 9831
4 9731 9732 9833 9832
4 9732 9733 9834 9833
4 9733 9734 9835 9834
4 9734 9735 9836 9835
4 9735 9736 9837 9836
4 9736 9737 9838 9837
4 9737 9738 9839 9838
4 9738 9739 9840 9839
4 9739 9740 9841 9840
4 9740 9741 9842 9841
4 9741 9742 9843 9842
4 9742 9743 9844 9843
4 9743 9744 9845 9844
4 9744 9745 9846 9845
4 9745 9746 9847 9846
4 9746 9747 9848 9847
4 9747 9748 9849 9848
4 9748 9749 9850 9849
4 9749 9750 9851 9850
4 9750 9751 9852 9851
4 9751 9752 9853 9852
4 9752 9753 9854 9853
4 9753 9754 9855 9854
4 9754 9755 9856 9855
4 9755 9756 9857 9856
4 9756 9757 9858 9857
4 9757 9758 9859 9858
4 9758 9759 9860 9859
4 9759 9760 9861 9860
4 9760 9761 9862 9861
4 9761 9762 9863 9862
4 9762 9763 9864 9863
4 9763 9764 9865 9864
4 9764 9765 9866 9865
4 9765 9766 9867 9866
4 9766 9767 9868 9867
4 9767 9768 9869 9868
4 9768 9769 9870 9869
4 9769 9770 9871 9870
4 9770 9771 9872 9871
4 9771 9772 9873 9872
4 9772 9773 9874 9873
4 9773 9774 9875 9874
4 9774 9775 9876 9875
4 9775 9776 9877 9876
4 9776 9777 9878 9877
4 9777 9778 9879 9878
4 9778 9779 9880 9879
4 9779 9780 9881 9880
4 9780 9781 9882 9881
4 9781 9782 9883 9882
4 9782 9783 9884 9883
4 9783 9784 9885 9884
4 9784 9785 9886 9885
4 9785 9786 9887 9886
4 9786 9787 9888 9887
4 9787 9788 9889 9888
4 9788 9789 9890 9889
4 9789 9790 9891 9890
4 9790 9791 9892 9891
4 9791 9792 9893 9892
4 9792 9793 9894 9893
4 9793 9794 9895 9894
4 9794 9795 9896 9895
4 9795 9796 9897 9896
4 9797 9798 9899 9898
4 9798 9799 9900 9899
4 9799 9800 9901 9900
4 9800 9801 9902 9901
4 9801 9802 9903 9902
4 9802 9803 9904 9903
4 9803 9804 9905 9904
4 9804 9805 9906 9905
4 9805 9806 9907 9906
4 9806 9807 9908 9907
4 9807 9808 9909 9908
4 9808 9809 9910 9909
4 9809 9810 9911 9910
4 9810 9811 9912 9911
4 9811 9812 9913 9912
4 9812 9813 9914 9913
4 9813 9814 9915 9914
4 9814 9815 9916 9915
4 9815 9816 9917 9916
4 9816 9817 9918 9917
4 9817 9818 9919 9918
4 9818 9819 9920 9919
4 9819 9820 9921 9920
4 9820 9821 9922 9921
4 9821 9822 9923 9922
4 9822 9823 9924 9923
4 9823 9824 9925 9924
4 9824 9825 9926 9925
4 9825 9826 9927 9926
4 9826 9827 9928 9927
4 9827 9828 9929 9928
4 9828 9829 9930 9929
4 9829 9830 9931 9930
4 9830 9831 9932 9931
4 9831 9832 9933 9932
4 9832 9833 9934 9933
4 9833 9834 9935 9934
4 9834 9835 9936 9935
4 9835 9836 9937 9936
4 9836 9837 9938 9937
4 9837 9838 9939 9938
4 9838 9839 9940 9939
4 9839 9840 9941 9940
4 9840 9841 9942 9941
4 9841 9842 9943 9942
4 9842 9843 9944 9943
4 9843 9844 9945 9944
4 9844 9845 9946 9945
4 9845 9846 9947 9946
4 9846 9847 9948 9947
4 9847 9848 9949 9948
4 9848 9849 9950 9949
4 9849 9850 9951 9950
4 9850 9851 9952 9951
4 9851 9852 9953 9952
4 9852 9853 9954 9953
4 9853 9854 9955 9954
4 9854 9855 9956 9955
4 9855 9856 9957 9956
4 9856 9857 9958 9957
4 9857 9858 9959 9958
4 9858 9859 9960 9959
4 9859 9860 9961 9960
4 9860 9861 9962 9961
4 9861 9862 9963 9962
4 9862 9863 9964 9963
4 9863 9864 9965 9964
4 9864 9865 9966 9965
4 9865 9866 9967 9966
4 9866 9867 9968 9967
4 9867 9868 9969 9968
4 9868 9869 9970 9969
4 9869 9870 9971 9970
4 9870 9871 9972 9971
4 9871 9872 9973 9972
4 9872 9873 9974 9973
4 9873 9874 9975 9974
4 9874 9875 9976 9975
4 9875 9876 9977 9976
4 9876 9877 9978 9977
4 9877 9878 9979 9978
4 9878 9879 9980 9979
4 9879 9880 9981 9980
4 9880 9881 9982 9981
4 9881 9882 9983 9982
4 9882 9883 9984 9983
4 9883 9884 9985 9984
4 9884 9885 9986 9985
4 9885 9886 9987 9986
4 9886 9887 9988 9987
4 9887 9888 9989 9988
4 9888 9889 9990 9989
4 9889 9890 9991 9990
4 9890 9891 9992 9991
4 9891 9892 9993 9992
4 9892 9893 9994 9993
4 9893 9894 9995 9994
4 9894 9895 9996 9995
4 9895 9896 9997 9996
4 9896 9897 9998 9997
4 9898 9899 10000 9999
4 9899 9900 10001 10000
4 9900 9901 10002 10001
4 9901 9902 10003 10002
4 9902 9903 10004 10003
4 9903 9904 10005 10004
4 9904 9905 10006 10005
4 9905 9906 10007 10006
4 9906 9907 10008 10007
4 9907 9908 10009 10008
4 9908 9909 10010 10009
4 9909 9910 10011 10010
4 9910 9911 10012 10011
4 9911 9912 10013 10012
4 9912 9913 10014 10013
4 9913 9914 10015 10014
4 9914 9915 10016 10015
4 9915 9916 10017 10016
4 9916 9917 10018 10017
4 9917 9918 10019 10018
4 9918 9919 10020 10019
4 9919 9920 10021 10020
4 9920 9921 10022 10021
4 9921 9922 10023 10022
4 9922 9923 10024 10023
4 9923 9924 10025 10024
4 9924 9925 10026 10025
4 9925 9926 10027 10026
4 9926 9927 10028 10027
4 9927 9928 10029 10028
4 9928 9929 10030 10029
4 9929 9930 10031 10030
4 9930 9931 10032 10031
4 9931 9932 10033 10032
4 9932 9933 10034 10033
4 9933 9934 10035 10034
4 9934 9935 10036 10035
4 9935 9936 10037 10036
4 9936 9937 10038 10037
4 9937 9938 10039 10038
4 9938 9939 10040 10039
4 9939 9940 10041 10040
4 9940 9941 10042 10041
4 9941 9942 10043 10042
4 9942 9943 10044 10043
4 9943 9944 10045 10044
4 9944 9945 10046 10045
4 9945 9946 10047 10046
4 9946 9947 10048 10047
4 9947 9948 10049 10048
4 9948 9949 10050 10049
4 9949 9950 10051 10050
4 9950 9951 10052 10051
4 9951 9952 10053 10052
4 9952 9953 10054 10053
4 9953 9954 10055 10054
4 9954 9955 10056 10055
4 9955 9956 10057 10056
4 9956 9957 10058 10057
4 9957 9958 10059 10058
4 9958 9959 10060 10059
4 9959 9960 10061 10060
4 9960 9961 10062 10061
4 9961 9962 10063 10062
4 9962 9963 10064 10063
4 9963 9964 10065 10064
4 9964 9965 10066 10065
4 9965 9966 10067 10066
4 9966 9967 10068 10067
4 9967 9968 10069 10068
4 9968 9969 10070 10069
4 9969 9970 10071 10070
4 9970 9971 10072 10071
4 9971 9972 10073 10072
4 9972 9973 10074 10073
4 9973 9974 10075 10074
4 9974 9975 10076 10075
4 9975 9976 10077 10076
4 9976 9977 10078 10077
4 9977 9978 10079 10078
4 9978 9979 10080 10079
4 9979 9980 10081 10080
4 9980 9981 10082 10081
4 9981 9982 10083 10082
4 9982 9983 10084 10083
4 9983 9984 10085 10084
4 9984 9985 10086 10085
4 9985 9986 10087 10086
4 9986 9987 10088 10087
4 9987 9988 10089 10088
4 9988 9989 10090 10089
4 9989 9990 10091 10090
4 9990 9991 10092 10091
4 9991 9992 10093 10092
4 9992 9993 10094 10093
4 9993 9994 10095 10094
4 9994 9995 10096 10095
4 9995 9996 10097 10096
4 9996 9997 10098 10097
4 9997 9998 10099 10098
4 9999 10000 10101 10100
4 10000 10001 10102 10101
4 10001 10002 10103 10102
4 10002 10003 10104 10103
4 10003 10004 10105 10104
4 10004 10005 10106 10105
4 10005 10006 10107 10106
4 10006 10007 10108 10107
4 10007 10008 10109 10108
4 10008 10009 10110 10109
4 10009 10010 10111 10110
4 10010 10011 10112 10111
4 10011 10012 10113 10112
4 10012 10013 10114 10113
4 10013 10014 10115 10114
4 10014 10015 10116 10115
4 10015 10016 10117 10116
4 10016 10017 10118 10117
4 10017 10018 10119 10118
4 10018 10019 10120 10119
4 10019 10020 10121 10120
4 10020 10021 10122 10121
4 10021 10022 10123 10122
4 10022 10023 10124 10123
4 10023 10024 10125 10124
4 10024 10025 10126 10125
4 10025 10026 10127 10126
4 10026 10027 10128 10127
4 10027 10028 10129 10128
4 10028 10029 10130 10129
4 10029 10030 10131 10130
4 10030 10031 10132 10131
4 10031 10032 10133 10132
4 10032 10033 10134 10133
4 10033 10034 10135 10134
4 10034 10035 10136 10135
4 10035 10036 10137 10136
4 10036 10037 10138 10137
4 10037 10038 10139 10138
4 10038 10039 10140 10139
4 10039 10040 10141 10140
4 10040 10041 10142 10141
4 10041 10042 10143 10142
4 10042 10043 10144 10143
4 10043 10044 10145 10144
4 10044 10045 10146 10145
4 10045 10046 10147 10146
4 10046 10047 10148 10147
4 10047 10048 10149 10148
4 10048 10049 10150 10149
4 10049 10050 10151 10150
4 10050 10051 10152 10151
4 10051 10052 10153 10152
4 10052 10053 10154 10153
4 10053 10054 10155 10154
4 10054 10055 10156 10155
4 10055 10056 10157 10156
4 10056 10057 10158 10157
4 10057 10058 10159 10158
4 10058 10059 10160 10159
4 10059 10060 10161 10160
4 10060 10061 10162 10161
4 10061 10062 10163 10162
4 10062 10063 10164 10163
4 10063 10064 10165 10164
4 10064 10065 10166 10165
4 10065 10066 10167 10166
4 10066 10067 10168 10167
4 10067 10068 10169 10168
4 10068 10069 10170 10169
4 10069 10070 10171 10170
4 10070 10071 10172 10171
4 10071 10072 10173 10172
4 10072 10073 10174 10173
4 10073 10074 10175 10174
4 10074 10075 10176 10175
4 10075 10076 10177 10176
4 10076 10077 10178 10177
4 10077 10078 10179 10178
4 10078 10079 10180 10179
4 10079 10080 10181 10180
4 10080 10081 10182 10181
4 10081 10082 10183 10182
4 10082 10083 10184 10183
4 10083 10084 10185 10184
4 10084 10085 10186 10185
4 10085 10086 10187 10186
4 10086 10087 10188 10187
4 10087 10088 10189 10188
4 10088 10089 10190 10189
4 10089 10090 10191 10190
4 10090 10091 10192 10191
4 10091 10092 10193 10192
4 10092 10093 10194 10193
4 10093 10094 10195 10194
4 10094 10095 10196 10195
4 10095 10096 10197 10196
4 10096 10097 10198 10197
4 10097 10098 10199 10198
4 10098 10099 10200 10199
CELL_TYPES 10000
9
9
9
9
9
9
9
9
9
9
9
9
9
9
9
9
9
9
9
9
9
9
9
9
9
9
9
9
9
9
9
9
9
9
9
9
9
9
9
9
9
9
9
9
9
9
9
9
9
9
9
9
9
9
9
9
9
9
9
9
9
9
9
9
9
9
9
9
9
9
9
9
9
9
9
9
9
9
9
9
9
9
9
9
9
9
9
9
9
9
9
9
9
9
9
9
9
9
9
9
9
9
9
9
9
9
9
9
9
9
9
9
9
9
9
9
9
9
9
9
9
9
9
9
9
9
9
9
9
9
9
9
9
9
9
9
9
9
9
9
9
9
9
9
9
9
9
9
9
9
9
9
9
9
9
9
9
9
9
9
9
9
9
9
9
9
9
9
9
9
9
9
9
9
9
9
9
9
9
9
9
9
9
9
9
9
9
9
9
9
9
9
9
9
9
9
9
9
9
9
9
9
9
9
9
9
9
9
9
9
9
9
9
9
9
9
9
9
9
9
9
9
9
9
9
9
9
9
9
9
9
9
9
9
9
9
9
9
9
9
9
9
9
9
9
9
9
9
9
9
9
9
9
9
9
9
9
9
9
9
9
9
9
9
9
9
9
9
9
9
9
9
9
9
9
9
9
9
9
9
9
9
9
9
9
9
9
9
9
9
9
9
9
9
9
9
9
9
9
9
9
9
9
9
9
9
9
9
9
9
9
9
9
9
9
9
9
9
9
9
9
9
9
9
9
9
9
9
9
9
9
9
9
9
9
9
9
9
9
9
9
9
9
9
9
9
9
9
9
9
9
9
9
9
9
9
9
9
9
9
9
9
9
9
9
9
9
9
9
9
9
9
9
9
9
9
9
9
9
9
9
9
9
9
9
9
9
9
9
9
9
9
9
9
9
9
9
9
9
9
9
9
9
9
9
9
9
9
9
9
9
9
9
9
9
9
9
9
9
9
9
9
9
9
9
9
9
9
9
9
9
9
9
9
9
9
9
9
9
9
9
9
9
9
9
9
9
9
9
9
9
9
9
9
9
9
9
9
9
9
9
9
9
9
9
9
9
9
9
9
9
9
9
9
9
9
9
9
9
9
9
9
9
9
9
9
9
9
9
9
9
9
9
9
9
9
9
9
9
9
9
9
9
9
9
9
9
9
9
9
9
9
9
9
9
9
9
9
9
9
9
9
9
9
9
9
9
9
9
9
9
9
9
9
9
9
9
9
9
9
9
9
9
9
9
9
9
9
9
9
9
9
9
9
9
9
9
9
9
9
9
9
9
9
9
9
9
9
9
9
9
9
9
9
9
9
9
9
9
9
9
9
9
9
9
9
9
9
9
9
9
9
9
9
9
9
9
9
9
9
9
9
9
9
9
9
9
9
9
9
9
9
9
9
9
9
9
9
9
9
9
9
9
9
9
9
9
9
9
9
9
9
9
9
9
9
9
9
9
9
9
9
9
9
9
9
9
9
9
9
9
9
9
9
9
9
9
9
9
9
9
9
9
9
9
9
9
9
9
9
9
9
9
9
9
9
9
9
9
9
9
9
9
9
9
9
9
9
9
9
9
9
9
9
9
9
9
9
9
9
9
9
9
9
9
9
9
9
9
9
9
9
9
9
9
9
9
9
9
9
9
9
9
9
9
9
9
9
9
9
9
9
9
9
9
9
9
9
9
9
9
9
9
9
9
9
9
9
9
9
9
9
9
9
9
9
9
9
9
9
9
9
9
9
9
9
9
9
9
9
9
9
9
9
9
9
9
9
9
9
9
9
9
9
9
9
9
9
9
9
9
9
9
9
9
9
9
9
9
9
9
9
9
9
9
9
9
9
9
9
9
9
9
9
9
9
9
9
9
9
9
9
9
9
9
9
9
9
9
9
9
9
9
9
9
9
9
9
9
9
9
9
9
9
9
9
9
9
9
9
9
9
9
9
9
9
9
9
9
9
9
9
9
9
9
9
9
9
9
9
9
9
9
9
9
9
9
9
9
9
9
9
9
9
9
9
9
9
9
9
9
9
9
9
9
9
9
9
9
9
9
9
9
9
9
9
9
9
9
9
9
9
9
9
9
9
9
9
9
9
9
9
9
9
9
9
9
9
9
9
9
9
9
9
9
9
9
9
9
9
9
9
9
9
9
9
9
9
9
9
9
9
9
9
9
9
9
9
9
9
9
9
9
9
9
9
9
9
9
9
9
9
9
9
9
9
9
9
9
9
9
9
9
9
9
9
9
9
9
9
9
9
9
9
9
9
9
9
9
9
9
9
9
9
9
9
9
9
9
9
9
9
9
9
9
9
9
9
9
9
9
9
9
9
9
9
9
9
9
9
9
9
9
9
9
9
9
9
9
9
9
9
9
9
9
9
9
9
9
9
9
9
9
9
9
9
9
9
9
9
9
9
9
9
9
9
9
9
9
9
9
9
9
9
9
9
9
9
9
9
9
9
9
9
9
9
9
9
9
9
9
9
9
9
9
9
9
9
9
9
9
9
9
9
9
9
9
9
9
9
9
9
9
9
9
9
9
9
9
9
9
9
9
9
9
9
9
9
9
9
9
9
9
9
9
9
9
9
9
9
9
9
9
9
9
9
9
9
9
9
9
9
9
9
9
9
9
9
9
9
9
9
9
9
9
9
9
9
9
9
9
9
9
9
9
9
9
9
9
9
9
9
9
9
9
9
9
9
9
9
9
9
9
9
9
9
9
9
9
9
9
9
9
9
9
9
9
9
9
9
9
9
9
9
9
9
9
9
9
9
9
9
9
9
9
9
9
9
9
9
9
9
9
9
9
9
9
9
9
9
9
9
9
9
9
9
9
9
9
9
9
9
9
9
9
9
9
9
9
9
9
9
9
9
9
9
9
9
9
9
9
9
9
9
9
9
9
9
9
9
9
9
9
9
9
9
9
9
9
9
9
9
9
9
9
9
9
9
9
9
9
9
9
9
9
9
9
9
9
9
9
9
9
9
9
9
9
9
9
9
9
9
9
9
9
9
9
9
9
9
9
9
9
9
9
9
9
9
9
9
9
9
9
9
9
9
9
9
9
9
9
9
9
9
9
9
9
9
9
9
9
9
9
9
9
9
9
9
9
9
9
9
9
9
9
9
9
9
9
9
9
9
9
9
9
9
9
9
9
9
9
9
9
9
9
9
9
9
9
9
9
9
9
9
9
9
9
9
9
9
9
9
9
9
9
9
9
9
9
9
9
9
9
9
9
9
9
9
9
9
9
9
9
9
9
9
9
9
9
9
9
9
9
9
9
9
9
9
9
9
9
9
9
9
9
9
9
9
9
9
9
9
9
9
9
9
9
9
9
9
9
9
9
9
9
9
9
9
9
9
9
9
9
9
9
9
9
9
9
9
9
9
9
9
9
9
9
9
9
9
9
9
9
9
9
9
9
9
9
9
9
9
9
9
9
9
9
9
9
9
9
9
9
9
9
9
9
9
9
9
9
9
9
9
9
9
9
9
9
9
9
9
9
9
9
9
9
9
9
9
9
9
9
9
9
9
9
9
9
9
9
9
9
9
9
9
9
9
9
9
9
9
9
9
9
9
9
9
9
9
9
9
9
9
9
9
9
9
9
9
9
9
9
9
9
9
9
9
9
9
9
9
9
9
9
9
9
9
9
9
9
9
9
9
9
9
9
9
9
9
9
9
9
9
9
9
9
9
9
9
9
9
9
9
9
9
9
9
9
9
9
9
9
9
9
9
9
9
9
9
9
9
9
9
9
9
9
9
9
9
9
9
9
9
9
9
9
9
9
9
9
9
9
9
9
9
9
9
9
9
9
9
9
9
9
9
9
9
9
9
9
9
9
9
9
9
9
9
9
9
9
9
9
9
9
9
9
9
9
9
9
9
9
9
9
9
9
9
9
9
9
9
9
9
9
9
9
9
9
9
9
9
9
9
9
9
9
9
9
9
9
9
9
9
9
9
9
9
9
9
9
9
9
9
9
9
9
9
9
9
9
9
9
9
9
9
9
9
9
9
9
9
9
9
9
9
9
9
9
9
9
9
9
9
9
9
9
9
9
9
9
9
9
9
9
9
9
9
9
9
9
9
9
9
9
9
9
9
9
9
9
9
9
9
9
9
9
9
9
9
9
9
9
9
9
9
9
9
9
9
9
9
9
9
9
9
9
9
9
9
9
9
9
9
9
9
9
9
9
9
9
9
9
9
9
9
9
9
9
9
9
9
9
9
9
9
9
9
9
9
9
9
9
9
9
9
9
9
9
9
9
9
9
9
9
9
9
9
9
9
9
9
9
9
9
9
9
9
9
9
9
9
9
9
9
9
9
9
9
9
9
9
9
9
9
9
9
9
9
9
9
9
9
9
9
9
9
9
9
9
9
9
9
9
9
9
9
9
9
9
9
9
9
9
9
9
9
9
9
9
9
9
9
9
9
9
9
9
9
9
9
9
9
9
9
9
9
9
9
9
9
9
9
9
9
9
9
9
9
9
9
9
9
9
9
9
9
9
9
9
9
9
9
9
9
9
9
9
9
9
9
9
9
9
9
9
9
9
9
9
9
9
9
9
9
9
9
9
9
9
9
9
9
9
9
9
9
9
9
9
9
9
9
9
9
9
9
9
9
9
9
9
9
9
9
9
9
9
9
9
9
9
9
9
9
9
9
9
9
9
9
9
9
9
9
9
9
9
9
9
9
9
9
9
9
9
9
9
9
9
9
9
9
9
9
9
9
9
9
9
9
9
9
9
9
9
9
9
9
9
9
9
9
9
9
9
9
9
9
9
9
9
9
9
9
9
9
9
9
9
9
9
9
9
9
9
9
9
9
9
9
9
9
9
9
9
9
9
9
9
9
9
9
9
9
9
9
9
9
9
9
9
9
9
9
9
9
9
9
9
9
9
9
9
9
9
9
9
9
9
9
9
9
9
9
9
9
9
9
9
9
9
9
9
9
9
9
9
9
9
9
9
9
9
9
9
9
9
9
9
9
9
9
9
9
9
9
9
9
9
9
9
9
9
9
9
9
9
9
9
9
9
9
9
9
9
9
9
9
9
9
9
9
9
9
9
9
9
9
9
9
9
9
9
9
9
9
9
9
9
9
9
9
9
9
9
9
9
9
9
9
9
9
9
9
9
9
9
9
9
9
9
9
9
9
9
9
9
9
9
9
9
9
9
9
9
9
9
9
9
9
9
9
9
9
9
9
9
9
9
9
9
9
9
9
9
9
9
9
9
9
9
9
9
9
9
9
9
9
9
9
9
9
9
9
9
9
9
9
9
9
9
9
9
9
9
9
9
9
9
9
9
9
9
9
9
9
9
9
9
9
9
9
9
9
9
9
9
9
9
9
9
9
9
9
9
9
9
9
9
9
9
9
9
9
9
9
9
9
9
9
9
9
9
9
9
9
9
9
9
9
9
9
9
9
9
9
9
9
9
9
9
9
9
9
9
9
9
9
9
9
9
9
9
9
9
9
9
9
9
9
9
9
9
9
9
9
9
9
9
9
9
9
9
9
9
9
9
9
9
9
9
9
9
9
9
9
9
9
9
9
9
9
9
9
9
9
9
9
9
9
9
9
9
9
9
9
9
9
9
9
9
9
9
9
9
9
9
9
9
9
9
9
9
9
9
9
9
9
9
9
9
9
9
9
9
9
9
9
9
9
9
9
9
9
9
9
9
9
9
9
9
9
9
9
9
9
9
9
9
9
9
9
9
9
9
9
9
9
9
9
9
9
9
9
9
9
9
9
9
9
9
9
9
9
9
9
9
9
9
9
9
9
9
9
9
9
9
9
9
9
9
9
9
9
9
9
9
9
9
9
9
9
9
9
9
9
9
9
9
9
9
9
9
9
9
9
9
9
9
9
9
9
9
9
9
9
9
9
9
9
9
9
9
9
9
9
9
9
9
9
9
9
9
9
9
9
9
9
9
9
9
9
9
9
9
9
9
9
9
9
9
9
9
9
9
9
9
9
9
9
9
9
9
9
9
9
9
9
9
9
9
9
9
9
9
9
9
9
9
9
9
9
9
9
9
9
9
9
9
9
9
9
9
9
9
9
9
9
9
9
9
9
9
9
9
9
9
9
9
9
9
9
9
9
9
9
9
9
9
9
9
9
9
9
9
9
9
9
9
9
9
9
9
9
9
9
9
9
9
9
9
9
9
9
9
9
9
9
9
9
9
9
9
9
9
9
9
9
9
9
9
9
9
9
9
9
9
9
9
9
9
9
9
9
9
9
9
9
9
9
9
9
9
9
9
9
9
9
9
9
9
9
9
9
9
9
9
9
9
9
9
9
9
9
9
9
9
9
9
9
9
9
9
9
9
9
9
9
9
9
9
9
9
9
9
9
9
9
9
9
9
9
9
9
9
9
9
9
9
9
9
9
9
9
9
9
9
9
9
9
9
9
9
9
9
9
9
9
9
9
9
9
9
9
9
9
9
9
9
9
9
9
9
9
9
9
9
9
9
9
9
9
9
9
9
9
9
9
9
9
9
9
9
9
9
9
9
9
9
9
9
9
9
9
9
9
9
9
9
9
9
9
9
9
9
9
9
9
9
9
9
9
9
9
9
9
9
9
9
9
9
9
9
9
9
9
9
9
9
9
9
9
9
9
9
9
9
9
9
9
9
9
9
9
9
9
9
9
9
9
9
9
9
9
9
9
9
9
9
9
9
9
9
9
9
9
9
9
9
9
9
9
9
9
9
9
9
9
9
9
9
9
9
9
9
9
9
9
9
9
9
9
9
9
9
9
9
9
9
9
9
9
9
9
9
9
9
9
9
9
9
9
9
9
9
9
9
9
9
9
9
9
9
9
9
9
9
9
9
9
9
9
9
9
9
9
9
9
9
9
9
9
9
9
9
9
9
9
9
9
9
9
9
9
9
9
9
9
9
9
9
9
9
9
9
9
9
9
9
9
9
9
9
9
9
9
9
9
9
9
9
9
9
9
9
9
9
9
9
9
9
9
9
9
9
9
9
9
9
9
9
9
9
9
9
9
9
9
9
9
9
9
9
9
9
9
9
9
9
9
9
9
9
9
9
9
9
9
9
9
9
9
9
9
9
9
9
9
9
9
9
9
9
9
9
9
9
9
9
9
9
9
9
9
9
9
9
9
9
9
9
9
9
9
9
9
9
9
9
9
9
9
9
9
9
9
9
9
9
9
9
9
9
9
9
9
9
9
9
9
9
9
9
9
9
9
9
9
9
9
9
9
9
9
9
9
9
9
9
9
9
9
9
9
9
9
9
9
9
9
9
9
9
9
9
9
9
9
9
9
9
9
9
9
9
9
9
9
9
9
9
9
9
9
9
9
9
9
9
9
9
9
9
9
9
9
9
9
9
9
9
9
9
9
9
9
9
9
9
9
9
9
9
9
9
9
9
9
9
9
9
9
9
9
9
9
9
9
9
9
9
9
9
9
9
9
9
9
9
9
9
9
9
9
9
9
9
9
9
9
9
9
9
9
9
9
9
9
9
9
9
9
9
9
9
9
9
9
9
9
9
9
9
9
9
9
9
9
9
9
9
9
9
9
9
9
9
9
9
9
9
9
9
9
9
9
9
9
9
9
9
9
9
9
9
9
9
9
9
9
9
9
9
9
9
9
9
9
9
9
9
9
9
9
9
9
9
9
9
9
9
9
9
9
9
9
9
9
9
9
9
9
9
9
9
9
9
9
9
9
9
9
9
9
9
9
9
9
9
9
9
9
9
9
9
9
9
9
9
9
9
9
9
9
9
9
9
9
9
9
9
9
9
9
9
9
9
9
9
9
9
9
9
9
9
9
9
9
9
9
9
9
9
9
9
9
9
9
9
9
9
9
9
9
9
9
9
9
9
9
9
9
9
9
9
9
9
9
9
9
9
9
9
9
9
9
9
9
9
9
9
9
9
9
9
9
9
9
9
9
9
9
9
9
9
9
9
9
9
9
9
9
9
9
9
9
9
9
9
9
9
9
9
9
9
9
9
9
9
9
9
9
9
9
9
9
9
9
9
9
9
9
9
9
9
9
9
9
9
9
9
9
9
9
9
9
9
9
9
9
9
9
9
9
9
9
9
9
9
9
9
9
9
9
9
9
9
9
9
9
9
9
9
9
9
9
9
9
9
9
9
9
9
9
9
9
9
9
9
9
9
9
9
9
9
9
9
9
9
9
9
9
9
9
9
9
9
9
9
9
9
9
9
9
9
9
9
9
9
9
9
9
9
9
9
9
9
9
9
9
9
9
9
9
9
9
9
9
9
9
9
9
9
9
9
9
9
9
9
9
9
9
9
9
9
9
9
9
9
9
9
9
9
9
9
9
9
9
9
9
9
9
9
9
9
9
9
9
9
9
9
9
9
9
9
9
9
9
9
9
9
9
9
9
9
9
9
9
9
9
9
9
9
9
9
9
9
9
9
9
9
9
9
9
9
9
9
9
9
9
9
9
9
9
9
9
9
9
9
9
9
9
9
9
9
9
9
9
9
9
9
9
9
9
9
9
9
9
9
9
9
9
9
9
9
9
9
9
9
9
9
9
9
9
9
9
9
9
9
9
9
9
9
9
9
9
9
9
9
9
9
9
9
9
9
9
9
9
9
9
9
9
9
9
9
9
9
9
9
9
9
9
9
9
9
9
9
9
9
9
9
9
9
9
9
9
9
9
9
9
9
9
9
9
9
9
9
9
9
9
9
9
9
9
9
9
9
9
9
9
9
9
9
9
9
9
9
9
9
9
9
9
9
9
9
9
9
9
9
9
9
9
9
9
9
9
9
9
9
9
9
9
9
9
9
9
9
9
9
9
9
9
9
9
9
9
9
9
9
9
9
9
9
9
9
9
9
9
9
9
9
9
9
9
9
9
9
9
9
9
9
9
9
9
9
9
9
9
9
9
9
9
9
9
9
9
9
9
9
9
9
9
9
9
9
9
9
9
9
9
9
9
9
9
9
9
9
9
9
9
9
9
9
9
9
9
9
9
9
9
9
9
9
9
9
9
9
9
9
9
9
9
9
9
9
9
9
9
9
9
9
9
9
9
9
9
9
9
9
9
9
9
9
9
9
9
9
9
9
9
9
9
9
9
9
9
9
9
9
9
9
9
9
9
9
9
9
9
9
9
9
9
9
9
9
9
9
9
9
9
9
9
9
9
9
9
9
9
9
9
9
9
9
9
9
9
9
9
9
9
9
9
9
9
9
9
9
9
9
9
9
9
9
9
9
9
9
9
9
9
9
9
9
9
9
9
9
9
9
9
9
9
9
9
9
9
9
9
9
9
9
9
9
9
9
9
9
9
9
9
9
9
9
9
9
9
9
9
9
9
9
9
9
9
9
9
9
9
9
9
9
9
9
9
9
9
9
9
9
9
9
9
9
9
9
9
9
9
9
9
9
9
9
9
9
9
9
9
9
9
9
9
9
9
9
9
9
9
9
9
9
9
9
9
9
9
9
9
9
9
9
9
9
9
9
9
9
9
9
9
9
9
9
9
9
9
9
9
9
9
9
9
9
9
9
9
9
9
9
9
9
9
9
9
9
9
9
9
9
9
9
9
9
9
9
9
9
9
9
9
9
9
9
9
9
9
9
9
9
9
9
9
9
9
9
9
9
9
9
9
9
9
9
9
9
9
9
9
9
9
9
9
9
9
9
9
9
9
9
9
9
9
9
9
9
9
9
9
9
9
9
9
9
9
9
9
9
9
9
9
9
9
9
9
9
9
9
9
9
9
9
9
9
9
9
9
9
9
9
9
9
9
9
9
9
9
9
9
9
9
9
9
9
9
9
9
9
9
9
9
9
9
9
9
9
9
9
9
9
9
9
9
9
9
9
9
9
9
9
9
9
9
9
9
9
9
9
9
9
9
9
9
9
9
9
9
9
9
9
9
9
9
9
9
9
9
9
9
9
9
9
9
9
9
9
9
9
9
9
9
9
9
9
9
9
9
9
9
9
9
9
9
9
9
9
9
9
9
9
9
9
9
9
9
9
9
9
9
9
9
9
9
9
9
9
9
9
9
9
9
9
9
9
9
9
9
9
9
9
9
9
9
9
9
9
9
9
9
9
9
9
9
9
9
9
9
9
9
9
9
9
9
9
9
9
9
9
9
9
9
9
9
9
9
9
9
9
9
9
9
9
9
9
9
9
9
9
9
9
9
9
9
9
9
9
9
9
9
9
9
9
9
9
9
9
9
9
9
9
9
9
9
9
9
9
9
9
9
9
9
9
9
9
9
9
9
9
9
9
9
9
9
9
9
9
9
9
9
9
9
9
9
9
9
9
9
9
9
9
9
9
9
9
9
9
9
9
9
9
9
9
9
9
9
9
9
9
9
9
9
9
9
9
9
9
9
9
9
9
9
9
9
9
9
9
9
9
9
9
9
9
9
9
9
9
9
9
9
9
9
9
9
9
9
9
9
9
9
9
9
9
9
9
9
9
9
9
9
9
9
9
9
9
9
9
9
9
9
9
9
9
9
9
9
9
9
9
9
9
9
9
9
9
9
9
9
9
9
9
9
9
9
9
9
9
9
9
9
9
9
9
9
9
9
9
9
9
9
9
9
9
9
9
9
9
9
9
9
9
9
9
9
9
9
9
9
9
9
9
9
9
9
9
9
9
9
9
9
9
9
9
9
9
9
9
9
9
9
9
9
9
9
9
9
9
9
9
9
9
9
9
9
9
9
9
9
9
9
9
9
9
9
9
9
9
9
9
9
9
9
9
9
9
9
9
9
9
9
9
9
9
9
9
9
9
9
9
9
9
9
9
9
9
9
9
9
9
9
9
9
9
9
9
9
9
9
9
9
9
9
9
9
9
9
9
9
9
9
9
9
9
9
9
9
9
9
9
9
9
9
9
9
9
9
9
9
9
9
9
9
9
9
9
9
9
9
9
9
9
9
9
9
9
9
9
9
9
9
9
9
9
9
9
9
9
9
9
9
9
9
9
9
9
9
9
9
9
9
9
9
9
9
9
9
9
9
9
9
9
9
9
9
9
9
9
9
9
9
9
9
9
9
9
9
9
9
9
9
9
9
9
9
9
9
9
9
9
9
9
9
9
9
9
9
9
9
9
9
9
9
9
9
9
9
9
9
9
9
9
9
9
9
9
9
9
9
9
9
9
9
9
9
9
9
9
9
9
9
9
9
9
9
9
9
9
9
9
9
9
9
9
9
9
9
9
9
9
9
9
9
9
9
9
9
9
9
9
9
9
9
9
9
9
9
9
9
9
9
9
9
9
9
9
9
9
9
9
9
9
9
9
9
9
9
9
9
9
9
9
9
9
9
9
9
9
9
9
9
9
9
9
9
9
9
9
9
9
9
9
9
9
9
9
9
9
9
9
9
9
9
9
9
9
9
9
9
9
9
9
9
9
9
9
9
9
9
9
9
9
9
9
9
9
9
9
9
9
9
9
9
9
9
9
9
9
9
9
9
9
9
9
9
9
9
9
9
9
9
9
9
9
9
9
9
9
9
9
9
9
9
9
9
9
9
9
9
9
9
9
9
9
9
9
9
9
9
9
9
9
9
9
9
9
9
9
9
9
9
9
9
9
9
9
9
9
9
9
9
9
9
9
9
9
9
9
9
9
9
9
9
9
9
9
9
9
9
9
9
9
9
9
9
9
9
9
9
9
9
9
9
9
9
9
9
9
9
9
9
9
9
9
9
9
9
9
9
9
9
9
9
9
9
9
9
9
9
9
9
9
9
9
9
9
9
9
9
9
9
9
9
9
9
9
9
9
9
9
9
9
9
9
9
9
9
9
9
9
9
9
9
9
9
9
9
9
9
9
9
9
9
9
9
9
9
9
9
9
9
9
9
9
9
9
9
9
9
9
9
9
9
9
9
9
9
9
9
9
9
9
9
9
9
9
9
9
9
9
9
9
9
9
9
9
9
9
9
9
9
9
9
9
9
9
9
9
9
9
9
9
9
9
9
9
9
9
9
9
9
9
9
9
9
9
9
9
9
9
9
9
9
9
9
9
9
9
9
9
9
9
9
9
9
9
9
9
9
9
9
9
9
9
9
9
9
9
9
9
9
9
9
9
9
9
9
9
9
9
9
9
9
9
9
9
9
9
9
9
9
9
9
9
9
9
9
9
9
9
9
9
9
9
9
9
9
9
9
9
9
9
9
9
9
9
9
9
9
9
9
9
9
9
9
9
9
9
9
9
9
9
9
9
9
9
9
9
9
9
9
9
9
9
9
9
9
9
9
9
9
9
9
9
9
9
9
9
9
9
9
9
9
9
9
9
9
9
9
9
9
9
9
9
9
9
9
9
9
9
9
9
9
9
9
9
9
9
9
9
9
9
9
9
9
9
9
9
9
9
9
9
9
9
9
9
9
9
9
9
9
9
9
9
9
9
9
9
9
9
9
9
9
9
9
9
9
9
9
9
9
9
9
9
9
9
9
9
9
9
9
9
9
9
9
9
9
9
9
9
9
9
9
9
9
9
9
9
9
9
9
9
9
9
9
9
9
9
9
9
9
9
9
9
9
9
9
9
9
9
9
9
9
9
9
9
9
9
9
9
9
9
9
9
9
9
9
9
9
9
9
9
9
9
9
9
9
9
9
9
9
9
9
9
9
9
9
9
9
9
9
9
9
9
9
9
9
9
9
9
9
9
9
9
9
9
9
9
9
9
9
9
9
9
9
9
9
9
9
9
9
9
9
9
9
9
9
9
9
9
9
9
9
9
9
9
9
9
9
9
9
9
9
9
9
9
9
9
9
9
9
9
9
9
9
9
9
9
9
9
9
9
9
9
9
9
9
9
9
9
9
9
9
9
9
9
9
9
9
9
9
9
9
9
9
9
9
9
9
9
9
9
9
9
9
9
9
9
9
9
9
9
9
9
9
9
9
9
9
9
9
9
9
9
9
9
9
9
9
9
9
9
9
9
9
9
9
9
9
9
9
9
9
9
9
9
9
9
9
9
9
9
9
9
9
9
9
9
9
9
9
9
9
9
9
9
9
9
9
9
9
9
9
9
9
9
9
9
9
9
9
9
9
9
9
9
9
9
9
9
9
9
9
9
9
9
9
9
9
9
9
9
9
9
9
9
9
9
9
9
9
9
9
9
9
9
9
9
9
9
9
9
9
9
9
9
9
9
9
9
9
9
9
9
9
9
9
9
9
9
9
9
9
9
9
9
9
9
9
9
9
9
9
9
9
9
9
9
9
9
9
9
9
9
9
9
9
9
9
9
9
9
9
9
9
9
9
9
9
9
9
9
9
9
9
9
9
9
9
9
9
9
9
9
9
9
9
9
9
9
9
9
9
9
9
9
9
9
9
9
9
9
9
9
9
9
9
9
9
9
9
9
9
9
9
9
9
9
9
9
9
9
9
9
9
9
9
9
9
9
9
9
9
9
9
9
9
9
9
9
9
9
9
9
9
9
9
9
9
9
9
9
9
9
9
9
9
9
9
9
9
9
9
9
9
9
9
9
9
9
9
9
9
9
9
9
9
9
9
9
9
9
9
9
9
9
9
9
9
9
9
9
9
9
9
9
9
9
9
9
9
9
9
9
9
9
9
9
9
9
9
9
9
9
9
9
9
9
9
9
9
9
9
9
9
9
9
9
9
9
9
9
9
9
9
9
9
9
9
9
9
9
9
9
9
9
9
9
9
9
9
9
9
9
9
9
9
9
9
9
9
9
9
9
9
9
9
9
9
9
9
9
9
9
9
9
9
9
9
9
9
9
9
9
9
9
9
9
9
9
9
9
9
9
9
9
9
9
9
9
9
9
9
9
9
9
9
9
9
9
9
9
9
9
9
9
9
9
9
9
9
9
9
9
9
9
9
9
9
9
9
9
9
9
9
9
9
9
9
9
9
9
9
9
9
9
9
9
9
9
9
9
9
9
9
9
9
9
9
9
9
9
9
9
9
9
9
9
9
9
9
9
9
9
9
9
9
9
9
9
9
9
9
9
9
9
9
9
9
9
9
9
9
9
9
9
9
9
9
9
9
9
9
9
9
9
9
9
9
9
9
9
9
9
9
9
9
9
9
9
9
9
9
9
9
9
9
9
9
9
9
9
9
9
9
9
9
9
9
9
9
9
9
9
9
9
9
9
9
9
9
9
9
9
9
9
9
9
9
9
9
9
9
9
9
9
9
9
9
9
9
9
9
9
9
9
9
9
9
9
9
9
9
9
9
9
9
9
9
9
9
9
9
9
9
9
9
9
9
9
9
9
9
9
9
9
9
9
9
9
9
9
9
9
9
9
9
9
9
9
9
9
9
9
9
9
9
9
9
9
9
9
9
9
9
9
9
9
9
9
9
9
9
9
9
9
9
9
9
9
9
9
9
9
9
9
9
9
9
9
9
9
9
9
9
9
9
9
9
9
9
9
9
9
9
9
9
9
9
9
9
9
9
9
9
9
9
9
9
9
9
9
9
9
9
9
9
9
9
9
9
9
9
9
9
9
9
9
9
9
9
9
9
9
9
9
9
9
9
9
9
9
9
9
9
9
9
9
9
9
9
9
9
9
9
9
9
9
9
9
9
9
9
9
9
9
9
9
9
9
9
9
9
9
9
9
9
9
9
9
9
9
9
9
9
9
9
9
9
9
9
9
9
9
9
9
9
9
9
9
9
9
9
9
9
9
9
9
9
9
9
9
9
9
9
9
9
9
9
9
9
9
9
9
9
9
9
9
9
9
9
9
9
9
9
9
9
9
9
9
9
9
9
9
9
9
9
9
9
9
9
9
9
9
9
9
9
9
9
9
9
9
9
9
9
9
9
9
9
9
9
9
9
9
9
9
9
9
9
9
9
9
9
9
9
9
9
9
9
9
9
9
9
9
9
9
9
9
9
9
9
9
9
9
9
9
9
9
9
9
9
9
9
9
9
9
9
9
9
9
9
9
9
9
9
9
9
9
9
9
9
9
9
9
9
9
9
9
9
9
9
9
9
9
9
9
9
9
9
9
9
9
9
9
9
9
9
9
9
9
9
9
9
9
9
9
9
9
9
9
9
9
9
9
9
9
9
9
9
9
9
9
9
9
9
9
9
9
9
9
9
9
9
9
9
9
9
9
9
9
9
9
9
9
9
9
9
9
9
9
9
9
9
9
9
9
9
9
9
9
9
9
9
9
9
9
9
9
9
9
9
9
9
9
9
9
9
9
9
9
9
9
9
9
9
9
9
9
9
9
9
9
9
9
9
9
9
9
9
9
9
9
9
9
9
9
9
9
9
9
9
9
9
9
9
9
9
9
9
9
9
9
9
9
9
9
9
9
9
9
9
9
9
9
9
9
9
9
9
9
9
9
9
9
9
9
9
9
9
9
9
9
9
9
9
9
9
9
9
9
9
9
9
9
9
9
9
9
9
9
9
9
9
9
9
9
9
9
9
9
9
9
9
9
9
9
9
9
9
9
9
9
9
9
9
9
9
9
9
9
9
9
9
9
9
9
9
9
9
9
9
9
9
9
9
9
9
9
9
9
9
9
9
9
9
9
9
9
9
9
9
9
9
9
9
9
9
9
9
9
9
9
9
9
9
9
9
9
9
9
9
9
9
9
9
9
9
9
9
9
9
9
9
9
9
9
9
9
9
9
9
9
9
9
9
9
9
9
9
9
9
9
9
9
9
9
9
9
9
9
9
9
9
9
9
9
9
9
9
9
9
9
9
9
9
9
9
9
9
9
9
9
9
9
9
9
9
9
9
9
9
9
9
9
9
9
9
9
9
9
9
9
9
9
9
9
9
9
9
9
9
9
9
9
9
9
9
9
9
9
9
9
9
9
9
9
9
9
9
9
9
9
9
9
9
9
9
9
9
9
9
9
9
9
9
9
9
9
9
9
9
9
9
9
9
9
9
9
9
9
9
9
9
9
9
9
9
9
9
9
9
9
9
9
9
9
9
9
9
9
9
9
9
9
9
9
9
9
9
9
9
9
9
9
9
9
9
9
9
9
9
9
9
9
9
9
9
9
9
9
9
9
9
9
9
9
9
9
9
9
9
9
9
9
9
9
9
9
9
9
9
9
9
9
9
9
9
9
9
9
9
9
9
9
9
9
9
9
9
9
9
9
9
9
9
9
9
9
9
9
9
9
9
9
9
9
9
9
9
9
9
9
9
9
9
9
9
9
9
9
9
9
9
9
9
9
9
9
9
9
9
9
9
9
9
9
9
9
9
9
9
9
9
9
9
9
9
9
9
9
9
9
9
9
9
9
9
9
9
9
9
9
9
9
9
9
9
9
9
9
9
9
9
9
9
9
9
9
9
9
9
9
9
9
9
9
9
9
9
9
9
9
9
9
9
9
9
9
9
9
9
9
9
9
9
9
9
9
9
9
9
9
9
9
9
9
9
9
9
9
9
9
9
9
9
9
9
9
9
9
9
9
9
9
9
9
9
9
9
9
9
9
9
9
9
9
9
9
9
9
9
9
9
9
9
9
9
9
9
9
9
9
9
9
9
9
9
9
9
9
9
9
9
9
9
9
9
9
9
9
9
9
9
9
9
9
9
9
9
9
9
9
9
9
9
9
9
9
9
9
9
9
9
9
9
9
9
9
9
9
9
9
9
9
9
9
9
9
9
9
9
9
9
9
9
9
9
9
9
9
9
9
9
9
9
9
9
9
9
9
9
9
9
9
9
9
9
9
9
9
9
9
9
9
9
9
9
9
9
9
9
9
9
9
9
9
9
9
9
9
9
9
9
9
9
9
9
9
9
9
9
9
9
9
9
9
9
9
9
9
9
9
9
9
9
9
9
9
9
9
9
9
9
9
9
9
9
9
9
9
9
9
9
9
9
9
9
9
9
9
9
9
9
9
9
9
9
9
9
9
9
9
9
9
9
9
9
9
9
9
9
9
9
9
9
9
9
9
9
9
9
9
9
9
9
9
9
9
9
9
9
9
9
9
9
9
9
9
9
9
9
9
9
9
9
9
9
9
9
9
9
9
9
9
9
9
9
9
9
9
9
9
9
9
9
9
9
9
9
9
9
9
9
9
9
9
9
9
9
9
9
9
9
9
9
9
9
9
9
9
9
9
9
9
9
9
9
9
9
9
9
9
9
9
9
9
9
9
9
9
9
9
9
9
9
9
9
9
9
9
9
9
9
9
9
9
9
9
9
9
9
9
9
9
9
9
9
9
9
9
9
9
9
9
9
9
9
9
9
9
9
9
9
9
9
9
9
9
9
9
9
9
9
9
9
9
9
9
9
9
9
9
9
9
9
9
9
9
9
9
9
9
9
9
9
9
9
9
9
9
9
9
9
9
9
9
9
9
9
9
9
9
9
9
9
9
9
9
9
9
9
9
9
9
9
9
9
9
9
9
9
9
9
9
9
9
9
9
9
9
9
9
9
9
9
9
9
9
9
9
9
9
9
9
9
9
9
9
9
9
9
9
9
9
9
9
9
9
9
9
9
9
9
9
9
9
9
9
9
9
9
9
9
9
9
9
9
9
9
9
9
9
9
9
9
9
9
9
9
9
9
9
9
9
9
9
9
9
9
9
9
9
9
9
9
9
9
9
9
9
9
9
9
9
9
9
9
9
9
9
9
9
9
9
9
9
9
9
9
9
9
9
9
9
9
9
9
9
9
9
9
9
9
9
9
9
9
9
9
9
9
9
9
9
9
9
9
9
9
9
9
9
9
9
9
9
9
9
9
9
9
9
9
9
9
9
9
9
9
9
9
9
9
9
9
9
9
9
9
9
9
9
9
9
9
9
9
9
9
9
9
9
9
9
9
9
9
9
9
9
9
9
9
9
9
9
9
9
9
9
9
9
9
9
9
9
9
9
9
9
9
9
9
9
9
9
9
9
9
9
9
9
9
9
9
9
9
9
9
9
9
9
9
9
9
9
9
9
9
9
9
9
9
9
9
9
9
9
9
9
9
9
9
9
9
9
9
9
9
9
9
9
9
9
9
9
9
9
9
9
9
9
9
9
9
9
9
9
9
9
9
9
9
9
9
9
9
9
9
9
9
9
9
9
9
9
9
9
9
9
9
9
9
9
9
9
9
9
9
9
9
9
9
9
9
9
9
9
9
9
9
9
9
9
9
9
9
9
9
9
9
9
9
9
9
9
9
9
9
9
9
9
9
9
9
9
9
9
9
9
9
9
9
9
9
9
9
9
9
9
9
9
9
9
9
9
9
9
9
9
9
9
9
9
9
9
9
9
9
9
9
9
9
9
9
9
9
9
9
9
9
9
9
9
9
9
9
9
9
9
9
9
9
9
9
9
9
9
9
9
9
9
9
9
9
9
9
9
9
9
9
9
9
9
9
9
9
9
9
9
9
9
9
9
9
9
9
9
9
9
9
9
9
9
9
9
9
9
9
9
9
9
9
9
9
9
9
9
9
9
9
9
9
9
9
9
9
9
9
9
9
9
9
9
9
9
9
9
9
9
9
9
9
9
9
9
9
9
9
9
9
9
9
9
9
9
9
9
9
9
9
9
9
9
9
9
9
9
9
9
9
9
9
9
9
9
9
9
9
9
9
9
9
9
9
9
9
9
9
9
9
9
9
9
9
9
9
9
9
9
9
9
9
9
9
9
9
9
9
9
9
9
9
9
9
9
9
9
9
9
9
9
9
9
9
9
9
9
9
9
9
9
9
9
9
9
9
9
9
9
9
9
9
9
9
9
9
9
9
9
9
9
9
9
9
9
9
9
9
9
9
9
9
9
9
9
9
9
9
9
9
9
9
9
9
9
9
9
9
9
9
9
9
9
9
9
9
9
9
9
9
9
9
9
9
9
9
9
9
9
9
9
9
9
9
9
9
9
9
9
9
9
9
9
9
9
9
9
9
9
9
9
9
9
9
9
9
9
9
9
9
9
9
9
9
9
9
9
9
9
9
9
9
9
9
9
9
9
9
9
9
9
9
9
9
9
9
9
9
9
9
9
9
9
9
9
9
9
9
9
9
9
9
9
9
9
9
9
9
9
9
9
9
9
9
9
9
9
9
9
9
9
9
9
9
9
9
9
9
9
9
9
9
9
9
9
9
9
9
9
9
9
9
9
9
9
9
9
9
9
9
9
9
9
9
9
9
9
9
9
9
9
9
9
9
9
9
9
9
9
9
9
9
9
9
9
9
9
9
9
9
9
9
9
9
9
9
9
9
9
9
9
9
9
9
9
9
9
9
9
9
9
9
9
9
9
9
9
9
9
9
9
9
9
9
9
9
9
9
9
9
9
9
9
9
9
9
9
9
9
9
9
9
9
9
9
9
9
9
9
9
9
9
9
9
9
9
9
9
9
9
9
9
9
9
9
9
9
9
9
9
9
9
9
9
9
9
9
9
9
9
9
9
9
9
9
9
9
9
9
9
9
9
9
9
9
9
9
9
9
9
9
9
9
9
9
9
9
9
9
9
9
9
9
9
9
9
9
9
9
9
9
9
9
9
9
9
9
9
9
9
9
9
9
9
9
9
9
9
9
9
9
9
9
9
9
9
9
9
9
9
9
9
9
9
9
9
9
9
9
9
9
9
9
9
9
9
9
9
9
9
9
9
9
9
9
9
9
9
9
9
9
9
9
9
9
9
9
9
9
9
9
9
9
9
9
9
9
9
9
9
9
9
9
9
9
9
9
9
9
9
9
9
9
9
9
9
9
9
9
9
9
9
9
9
9
9
9
9
9
9
9
9
9
9
9
9
9
9
9
9
9
9
9
9
9
9
9
9
9
9
9
9
9
9
9
9
9
9
9
9
9
9
9
9
9
9
9
9
9
9
9
9
9
9
9
9
9
9
9
9
9
9
9
9
9
9
9
9
9
9
9
9
9
9
9
9
9
9
9
9
9
9
9
9
9
9
9
9
9
9
9
9
9
9
9
9
9
9
9
9
9
9
9
9
9
9
9
9
9
9
9
9
9
9
9
9
9
9
9
9
9
9
9
9
9
9
9
9
9
9
9
9
9
9
9
9
9
9
9
9
9
9
9
9
9
9
9
9
9
9
9
9
9
9
9
9
9
9
9
9
9
9
9
9
9
9
9
9
9
9
9
9
9
9
9
9
9
9
9
9
9
9
9
9
9
9
9
9
9
9
9
9
9
9
9
9
9
9
9
9
9
9
9
9
9
9
9
9
9
9
9
9
9
9
9
9
9
9
9
9
9
9
9
9
9
9
9
9
9
9
9
9
9
9
9
9
9
9
9
9
9
9
9
9
9
9
9
9
9
9
9
9
9
9
9
9
9
9
9
9
9
9
9
9
9
9
9
9
9
9
9
9
9
9
9
9
9
9
9
9
9
9
9
9
9
9
9
9
9
9
9
9
9
9
9
9
9
9
9
9
9
9
9
9
9
9
9
9
9
9
9
9
9
9
9
9
9
9
9
9
9
9
9
9
9
9
9
9
9
9
9
9
9
9
9
9
9
9
9
9
9
9
9
9
9
9
9
9
9
9
9
9
9
9
9
9
9
9
9
9
9
9
9
9
9
9
9
9
9
9
9
9
9
9
9
9
9
9
9
9
9
9
9
9
9
9
9
9
9
9
9
9
9
9
9
9
9
9
9
9
9
9
9
9
9
9
9
9
9
9
9
9
9
9
9
9
9
9
9
9
9
9
9
9
9
9
9
9
9
9
9
9
9
9
9
9
9
9
9
9
9
9
9
9
9
9
9
9
9
9
9
9
9
9
9
9
9
9
9
9
9
9
9
9
9
9
9
9
9
9
9
9
9
9
9
9
9
9
9
9
9
9
9
9
9
9
9
9
9
9
9
9
9
9
9
9
9
9
9
9
9
9
9
9
9
9
9
9
9
9
9
9
9
9
9
9
9
9
9
9
9
9
9
9
9
9
9
9
9
9
9
9
9
9
9
9
9
9
9
9
9
9
9
9
9
9
9
9
9
9
9
9
9
9
9
9
9
9
9
9
9
9
9
9
9
9
9
9
9
9
9
9
9
9
9
9
9
9
9
9
9
9
9
9
9
9
9
9
9
9
9
9
9
9
9
9
9
9
9
9
9
9
9
9
9
9
9
9
9
9
9
9
9
9
9
9
9
9
9
9
9
9
9
9
9
9
9
9
9
9
9
9
9
9
9
9
9
9
9
9
9
9
9
9
9
9
9
9
9
9
9
9
9
9
9
9
9
9
9
9
9
9
9
9
9
9
9
9
9
9
9
9
9
9
9
9
9
9
9
9
9
9
9
9
9
9
9
9
9
9
9
9
9
9
9
9
9
9
9
9
9
9
9
9
9
9
9
9
9
9
9
9
9
9
9
9
9
9
9
9
9
9
9
9
9
9
9
9
9
9
9
9
9
9
9
9
9
9
9
9
9
9
9
9
9
9
9
9
9
9
9
9
9
9
9
9
9
9
9
9
9
9
9
9
9
9
9
9
9
9
9
9
9
9
9
9
9
9
9
9
9
9
9
9
9
9
9
9
9
9
9
9
9
9
9
9
9
9
9
9
9
9
9
9
9
9
9
9
9
9
9
9
9
9
9
9
9
9
9
9
9
9
9
9
9
9
9
9
9
9
9
9
9
9
9
9
9
9
9
9
9
9
9
9
9
9
9
9
9
9
9
9
9
9
9
9
9
9
9
9
9
9
9
9
9
9
9
9
9
9
9
9
9
9
9
9
9
9
9
9
9
9
9
9
9
9
9
9
9
9
9
9
9
9
9
9
9
9
9
9
9
9
9
9
9
9
9
9
9
9
9
9
9
9
9
9
9
9
9
9
9
9
9
9
9
9
9
9
9
9
9
9
9
9
9
9
9
9
9
9
9
9
9
9
9
9
9
9
9
9
9
9
9
9
9
9
9
9
9
9
9
9
9
9
9
9
9
9
9
9
9
9
9
9
9
9
9
9
9
9
9
9
9
9
9
9
9
9
9
9
9
9
9
9
9
9
9
9
9
9
9
9
9
9
9
9
9
9
9
9
9
9
9
9
9
9
9
9
9
9
9
9
9
9
9
9
9
9
9
9
9
9
9
9
9
9
9
9
9
9
9
9
9
9
9
9
9
9
9
9
9
9
9
9
9
9
9
9
9
9
9
9
9
9
9
9
9
9
9
9
9
9
9
9
9
9
9
9
9
9
9
9
9
9
9
9
9
9
9
9
9
9
9
9
9
9
9
9
9
9
9
9
9
9
9
9
9
9
9
9
9
9
9
9
9
9
9
9
9
9
9
9
9
9
9
9
9
9
9
9
9
9
9
9
9
9
9
9
9
9
9
9
9
9
9
9
9
9
9
9
9
9
9
9
9
9
9
9
9
9
9
9
9
9
9
9
9
9
9
9
9
9
9
9
9
9
9
9
9
9
9
9
9
9
9
9
9
9
9
9
9
9
9
9
9
9
9
9
9
9
9
9
9
9
9
9
9
9
9
9
9
9
9
9
9
9
9
9
9
9
9
9
9
9
9
9
9
9
9
9
9
9
9
9
9
9
9
9
9
9
9
9
9
9
9
9
9
9
9
9
9
9
9
9
9
9
9
9
9
9
9
9
9
9
9
9
9
9
9
9
9
9
9
9
9
9
9
9
9
9
9
9
9
9
9
9
9
9
9
9
9
9
9
9
9
9
9
9
9
9
9
9
9
9
9
9
9
9
9
9
9
POINT_DATA 10201
VECTORS displacement float
-1.26149e-24 0 0
2.1595e-24 0 0
7.71795e-24 0 0
-2.64153e-25 0 0
-1.20014e-23 0 0
-4.74309e-24 0 0
6.62209e-24 0 0
1.62581e-23 0 0
2.83278e-24 0 0
1.9825e-24 0 0
-4.97681e-24 0 0
-1.73493e-23 0 0
1.26574e-24 0 0
-1.24645e-24 0 0
6.39496e-24 0 0
3.29964e-24 0 0
-6.36118e-24 0 0
8.90057e-24 0 0
-2.6699e-24 0 0
-3.47166e-24 0 0
5.69367e-25 0 0
1.71503e-23 0 0
-3.02563e-23 0 0
3.36835e-23 0 0
-6.93353e-23 0 0
8.50515e-23 0 0
-1.09496e-22 0 0
1.66408e-22 0 0
-2.58542e-22 0 0
4.3171e-22 0 0
-6.49126e-22 0 0
1.00968e-21 0 0
-1.56432e-21 0 0
2.3598e-21 0 0
-3.63836e-21 0 0
5.50668e-21 0 0
-8.32811e-21 0 0
1.26463e-20 0 0
-1.90771e-20 0 0
2.86912e-20 0 0
-4.3017e-20 0 0
6.432e-20 0 0
-9.58923e-20 0 0
1.42575e-19 0 0
-2.11378e-19 0 0
3.12399e-19 0 0
-4.6043e-19 0 0
6.76618e-19 0 0
-9.91448e-19 0 0
1.44856e-18 0 0
-2.11019e-18 0 0
3.06513e-18 0 0
-4.43932e-18 0 0
6.41077e-18 0 0
-9.23098e-18 0 0
1.32526e-17 0 0
-1.89717e-17 0 0
2.70778e-17 0 0
-3.85373e-17 0 0
5.46812e-17 0 0
-7.73695e-17 0 0
1.09135e-16 0 0
-1.5352e-16 0 0
2.15269e-16 0 0
-3.01063e-16 0 0
4.19641e-16 0 0
-5.83508e-16 0 0
8.08428e-16 0 0
-1.11773e-15 0 0
1.53906e-15 0 0
-2.11609e-15 0 0
2.8953e-15 0 0
-3.95972e-15 0 0
5.38176e-15 0 0
-7.32436e-15 0 0
9.88308e-15 0 0
-1.33946e-14 0 0
1.79269e-14 0 0
-2.42263e-14 0 0
3.21073e-14 0 0
-4.33588e-14 0 0
5.67447e-14 0 0
-7.68572e-14 0 0
9.88607e-14 0 0
-1.35117e-13 0 0
1.69511e-13 0 0
-2.36049e-13 0 0
2.85387e-13 0 0
-4.1073e-13 0 0
4.70558e-13 0 0
-7.1271e-13 0 0
7.59657e-13 0 0
-1.22796e-12 0 0
1.21479e-12 0 0
-2.05397e-12 0 0
2.03052e-12 0 0
-3.09147e-12 0 0
4.14956e-12 0 0
-3.12654e-12 0 0
1.27614e-11 0 0
2.78438e-12 0 0
2.02312e-24 -8.26276e-25 0
-5.12592e-24 5.1954e-25 0
-4.71241e-24 -1.8792e-25 0
1.38755e-23 -5.64655e-24 0
5.51226e-24 -2.50417e-24 0
-7.7344e-24 7.16753e-24 0
-2.63851e-23 1.0109e-23 0
-9.7361e-24 3.41184e-24 0
1.01132e-23 -9.82234e-24 0
1.2141e-23 -1.10559e-23 0
3.64897e-23 -1.29672e-23 0
6.28735e-24 -4.55509e-24 0
-6.84402e-24 8.88024e-24 0
-8.95261e-24 6.03511e-24 0
-1.68404e-23 5.73532e-24 0
5.96653e-24 1.39234e-24 0
-1.34549e-23 -3.65106e-25 0
-4.442e-24 7.34451e-24 0
4.94111e-24 -9.33385e-24 0
2.11932e-23 3.62683e-24 0
-3.47061e-23 -1.03443e-23 0
6.16444e-23 1.22226e-23 0
-5.08238e-23 -4.01141e-23 0
1.06798e-22 4.65688e-23 0
-1.28414e-22 -7.50231e-23 0
1.53335e-22 1.35594e-22 0
-2.85504e-22 -1.78787e-22 0
4.34421e-22 2.84577e-22 0
-7.22623e-22 -4.21467e-22 0
1.07617e-21 6.60454e-22 0
-1.64902e-21 -1.02397e-21 0
2.57057e-21 1.53176e-21 0
-3.83505e-21 -2.37017e-21 0
5.90895e-21 3.56726e-21 0
-8.91552e-21 -5.39751e-21 0
1.34348e-20 8.17711e-21 0
-2.03966e-20 -1.22355e-20 0
3.06136e-20 1.83731e-20 0
-4.5902e-20 -2.74767e-20 0
6.86001e-20 4.09645e-20 0
-1.02271e-19 -6.08896e-20 0
1.52038e-19 9.02388e-20 0
-2.25363e-19 -1.33361e-19 0
3.33134e-19 1.96487e-19 0
-4.90856e-19 -2.88723e-19 0
7.21346e-19 4.22961e-19 0
-1.057e-18 -6.17788e-19 0
1.54428e-18 8.99801e-19 0
-2.24984e-18 -1.30663e-18 0
3.26795e-18 1.89201e-18 0
-4.73342e-18 -2.73149e-18 0
6.83603e-18 3.93198e-18 0
-9.84414e-18 -5.64347e-18 0
1.41347e-17 8.07631e-18 0
-2.02364e-17 -1.15238e-17 0
2.88876e-17 1.63952e-17 0
-4.11178e-17 -2.32564e-17 0
5.83541e-17 3.28935e-17 0
-8.25768e-17 -4.63844e-17 0
1.16508e-16 6.5221e-17 0
-1.6391e-16 -9.14276e-17 0
2.29906e-16 1.27803e-16 0
-3.21559e-16 -1.78094e-16 0
4.48378e-16 2.47496e-16 0
-6.23471e-16 -3.42829e-16 0
8.64219e-16 4.73658e-16 0
-1.19471e-15 -6.52159e-16 0
1.64617e-15 8.95848e-16 0
-2.26253e-15 -1.22593e-15 0
3.09873e-15 1.67451e-15 0
-4.23458e-15 -2.2772e-15 0
5.76412e-15 3.09351e-15 0
-7.83283e-15 -4.17965e-15 0
1.05949e-14 5.64898e-15 0
-1.43199e-14 -7.57958e-15 0
1.92418e-14 1.01982e-14 0
-2.58773e-14 -1.35785e-14 0
3.45242e-14 1.82077e-14 0
-4.62313e-14 -2.40239e-14 0
6.11836e-14 3.21666e-14 0
-8.16856e-14 -4.19559e-14 0
1.07056e-13 5.62835e-14 0
-1.42831e-13 -7.22574e-14 0
1.84817e-13 9.76932e-14 0
-2.47428e-13 -1.22504e-13 0
3.14381e-13 1.68636e-13 0
-4.25477e-13 -2.0381e-13 0
5.25653e-13 2.90603e-13 0
-7.28689e-13 -3.3092e-13 0
8.60051e-13 5.02516e-13 0
-1.2496e-12 -5.19599e-13 0
1.3659e-12 8.76479e-13 0
-2.16357e-12 -7.77899e-13 0
2.0781e-12 1.54185e-12 0
-3.83057e-12 -1.09007e-12 0
2.98297e-12 2.67858e-12 0
-7.04948e-12 -1.41624e-12 0
4.00805e-12 4.2017e-12 0
-1.33559e-11 -1.89933e-12 0
4.3639e-12 3.87342e-12 0
-2.13412e-11 -4.82888e-12 0
-5.05055e-24 3.7787e-24 0
-1.41329e-24 2.99223e-24 0
-2.58538e-23 1.15066e-23 0
-1.7056e-23 8.4414e-24 0
1.93647e-23 -9.67862e-24 0
3.8389e-23 -1.74857e-23 0
2.25232e-23 -9.89114e-24 0
-2.32723e-23 9.97536e-24 0
-1.84938e-23 1.27367e-23 0
-5.34181e-23 2.36897e-23 0
-4.8596e-23 2.20875e-23 0
1.8505e-23 -7.26005e-24 0
1.22642e-23 -9.60397e-24 0
3.74667e-23 -1.32704e-23 0
-1.09363e-23 -3.661e-25 0
1.56875e-23 -1.26683e-24 0
1.72724e-23 -1.5565e-23 0
3.37537e-23 -1.98133e-24 0
-5.09414e-23 -3.05523e-25 0
5.55743e-23 1.11947e-23 0
-9.22176e-23 -1.10007e-23 0
4.55582e-23 5.78033e-23 0
-1.34579e-22 -5.46094e-23 0
1.19332e-22 1.21148e-22 0
-1.75492e-22 -1.93716e-22 0
4.19281e-22 2.34445e-22 0
-5.8673e-22 -3.95786e-22 0
9.85058e-22 5.71868e-22 0
-1.43138e-21 -9.11187e-22 0
2.20098e-21 1.38666e-21 0
-3.42302e-21 -2.07533e-21 0
5.05089e-21 3.22167e-21 0
-7.8089e-21 -4.80777e-21 0
1.17427e-20 7.28362e-21 0
-1.77061e-20 -1.09712e-20 0
2.6868e-20 1.63513e-20 0
-4.00846e-20 -2.45564e-20 0
6e-20 3.66033e-20 0
-8.9472e-20 -5.44442e-20 0
1.33155e-19 8.0702e-20 0
-1.97508e-19 -1.19324e-19 0
2.92133e-19 1.75921e-19 0
-4.30919e-19 -2.58582e-19 0
6.3358e-19 3.79107e-19 0
-9.29266e-19 -5.54041e-19 0
1.35886e-18 8.07443e-19 0
-1.98115e-18 -1.17345e-18 0
2.88046e-18 1.70028e-18 0
-4.17546e-18 -2.45677e-18 0
6.03596e-18 3.53926e-18 0
-8.69982e-18 -5.0842e-18 0
1.25032e-17 7.28236e-18 0
-1.79174e-17 -1.04007e-17 0
2.56015e-17 1.48114e-17 0
-3.64754e-17 -2.10312e-17 0
5.18164e-17 2.97764e-17 0
-7.33962e-17 -4.20355e-17 0
1.03659e-16 5.91696e-17 0
-1.45975e-16 -8.30449e-17 0
2.0496e-16 1.16216e-16 0
-2.86945e-16 -1.62161e-16 0
4.00532e-16 2.25616e-16 0
-5.5747e-16 -3.12978e-16 0
7.73566e-16 4.32917e-16 0
-1.07036e-15 -5.9705e-16 0
1.47649e-15 8.21053e-16 0
-2.031e-15 -1.12574e-15 0
2.78495e-15 1.53912e-15 0
-3.80844e-15 -2.09796e-15 0
5.19086e-15 2.8518e-15 0
-7.05719e-15 -3.86453e-15 0
9.56038e-15 5.22308e-15 0
-1.29228e-14 -7.03646e-15 0
1.7398e-14 9.45635e-15 0
-2.33843e-14 -1.26645e-14 0
3.12807e-14 1.6926e-14 0
-4.18165e-14 -2.25335e-14 0
5.556e-14 2.99564e-14 0
-7.39043e-14 -3.96377e-14 0
9.74724e-14 5.24363e-14 0
-1.29115e-13 -6.89389e-14 0
1.68854e-13 9.08129e-14 0
-2.23067e-13 -1.18553e-13 0
2.88694e-13 1.55704e-13 0
-3.8139e-13 -2.01565e-13 0
4.86703e-13 2.64561e-13 0
-6.46229e-13 -3.38665e-13 0
8.07703e-13 4.46275e-13 0
-1.088e-12 -5.61541e-13 0
1.31533e-12 7.49765e-13 0
-1.82932e-12 -9.15428e-13 0
2.08979e-12 1.26189e-12 0
-3.10016e-12 -1.45299e-12 0
3.20076e-12 2.15152e-12 0
-5.36687e-12 -2.19606e-12 0
4.56261e-12 3.82336e-12 0
-9.5533e-12 -3.07369e-12 0
5.23403e-12 7.71478e-12 0
-1.7227e-11 -4.43196e-12 0
1.57678e-12 2.05758e-11 0
-3.40232e-11 -1.14201e-11 0
4.39427e-24 -7.15137e-24 0
3.09531e-23 -1.71294e-23 0
7.71457e-23 -3.52122e-23 0
1.15217e-25 -8.94764e-25 0
-4.91074e-23 2.33921e-23 0
-6.83951e-23 2.92019e-23 0
4.70662e-23 -2.04328e-23 0
4.06084e-23 -1.83891e-23 0
-1.92562e-24 -1.00076e-24 0
1.23214e-23 -3.28044e-24 0
-2.20659e-23 6.46399e-24 0
6.5769e-24 3.22787e-24 0
-4.85361e-23 1.59046e-23 0
1.1038e-23 5.90797e-25 0
3.47153e-23 -2.42115e-23 0
2.60623e-23 1.74107e-24 0
-6.21485e-23 8.45924e-24 0
2.03263e-25 3.14066e-23 0
-1.34659e-22 1.58002e-23 0
5.97815e-23 4.04823e-23 0
-5.49878e-23 -7.74058e-23 0
1.54426e-22 8.83388e-23 0
-1.64759e-22 -1.71077e-22 0
3.49945e-22 2.22532e-22 0
-5.39972e-22 -3.46384e-22 0
7.98432e-22 5.4813e-22 0
-1.29012e-21 -8.11923e-22 0
1.89551e-21 1.2763e-21 0
-2.88735e-21 -1.946e-21 0
4.37701e-21 2.96311e-21 0
-6.63946e-21 -4.49374e-21 0
1.01565e-20 6.7436e-21 0
-1.53507e-20 -1.01534e-20 0
2.30627e-20 1.52777e-20 0
-3.46716e-20 -2.28637e-20 0
5.18522e-20 3.41761e-20 0
-7.74565e-20 -5.08842e-20 0
1.15343e-19 7.55659e-20 0
-1.71257e-19 -1.11901e-19 0
2.53413e-19 1.65313e-19 0
-3.74219e-19 -2.43386e-19 0
5.50719e-19 3.57462e-19 0
-8.08229e-19 -5.23484e-19 0
1.18291e-18 7.64379e-19 0
-1.72614e-18 -1.11305e-18 0
2.51188e-18 1.61605e-18 0
-3.64479e-18 -2.3397e-18 0
5.27336e-18 3.37781e-18 0
-7.60777e-18 -4.86255e-18 0
1.09439e-17 6.97998e-18 0
-1.56976e-17 -9.99083e-18 0
2.24512e-17 1.42594e-17 0
-3.20174e-17 -2.02936e-17 0
4.55273e-17 2.87984e-17 0
-6.455e-17 -4.075e-17 0
9.1254e-17 5.74964e-17 0
-1.2863e-16 -8.08909e-17 0
1.80783e-16 1.13478e-16 0
-2.5334e-16 -1.58732e-16 0
3.53972e-16 2.21398e-16 0
-4.9313e-16 -3.07906e-16 0
6.84956e-16 4.26992e-16 0
-9.48618e-16 -5.90409e-16 0
1.30983e-15 8.14044e-16 0
-1.80331e-15 -1.11909e-15 0
2.47515e-15 1.53412e-15 0
-3.38744e-15 -2.09681e-15 0
4.6216e-15 2.85796e-15 0
-6.28742e-15 -3.88362e-15 0
8.52626e-15 5.26323e-15 0
-1.15304e-14 -7.11065e-15 0
1.55405e-14 9.58232e-15 0
-2.08911e-14 -1.28705e-14 0
2.79815e-14 1.72482e-14 0
-3.73936e-14 -2.30312e-14 0
4.97652e-14 3.06995e-14 0
-6.61196e-14 -4.07486e-14 0
8.74113e-14 5.404e-14 0
-1.15491e-13 -7.12888e-14 0
1.51602e-13 9.4108e-14 0
-1.99278e-13 -1.23337e-13 0
2.59543e-13 1.62206e-13 0
-3.39714e-13 -2.11043e-13 0
4.38397e-13 2.7692e-13 0
-5.7232e-13 -3.5718e-13 0
7.30016e-13 4.68815e-13 0
-9.53525e-13 -5.97896e-13 0
1.1967e-12 7.88594e-13 0
-1.57323e-12 -9.89687e-13 0
1.92585e-12 1.32241e-12 0
-2.57667e-12 -1.61981e-12 0
3.02315e-12 2.2255e-12 0
-4.20055e-12 -2.62827e-12 0
4.54838e-12 3.81774e-12 0
-6.81864e-12 -4.29161e-12 0
6.24807e-12 6.89655e-12 0
-1.10494e-11 -7.3028e-12 0
6.92973e-12 1.34114e-11 0
-1.87652e-11 -1.24757e-11 0
3.81066e-12 2.43868e-11 0
-3.59035e-11 -9.6092e-12 0
3.52431e-24 5.56212e-24 0
-4.52951e-23 2.44755e-23 0
-5.19545e-23 2.17903e-23 0
4.39422e-23 -1.81231e-23 0
5.36485e-23 -1.46987e-23 0
3.80547e-23 -1.50301e-23 0
-5.65277e-23 2.96271e-23 0
-3.33975e-23 1.22155e-23 0
-8.29532e-23 3.11443e-23 0
6.06269e-23 -1.10375e-23 0
1.7743e-23 -1.38559e-23 0
5.58661e-23 -3.32322e-23 0
5.33261e-23 -3.68029e-23 0
-7.62961e-23 3.90642e-23 0
-8.82431e-23 2.94825e-23 0
4.71931e-23 -2.85936e-25 0
-4.31854e-23 -9.37033e-24 0
1.39277e-22 -1.42899e-24 0
-6.32541e-24 -7.70986e-23 0
8.73886e-23 9.93635e-23 0
-1.95645e-22 -1.34104e-22 0
2.15241e-22 2.50486e-22 0
-5.32568e-22 -2.97172e-22 0
7.0024e-22 4.83094e-22 0
-1.00716e-21 -7.71522e-22 0
1.62102e-21 1.11927e-21 0
-2.41796e-21 -1.75303e-21 0
3.67572e-21 2.67436e-21 0
-5.6954e-21 -3.98921e-21 0
8.5663e-21 6.07565e-21 0
-1.29562e-20 -9.1537e-21 0
1.95978e-20 1.3712e-20 0
-2.92396e-20 -2.06684e-20 0
4.38989e-20 3.08668e-20 0
-6.55687e-20 -4.59915e-20 0
9.76487e-20 6.84265e-20 0
-1.45193e-19 -1.01384e-19 0
2.14975e-19 1.49958e-19 0
-3.1754e-19 -2.21122e-19 0
4.6766e-19 3.2518e-19 0
-6.86845e-19 -4.7683e-19 0
1.00595e-18 6.9715e-19 0
-1.46908e-18 -1.01656e-18 0
2.13926e-18 1.47805e-18 0
-3.10642e-18 -2.14298e-18 0
4.49777e-18 3.09829e-18 0
-6.49371e-18 -4.4668e-18 0
9.34842e-18 6.42144e-18 0
-1.34194e-17 -9.20525e-18 0
1.92075e-17 1.31583e-17 0
-2.74128e-17 -1.87555e-17 0
3.90099e-17 2.66573e-17 0
-5.53521e-17 -3.778e-17 0
7.83116e-17 5.33907e-17 0
-1.10471e-16 -7.52357e-17 0
1.55381e-16 1.05715e-16 0
-2.17908e-16 -1.48116e-16 0
3.04696e-16 2.06928e-16 0
-4.24795e-16 -2.88261e-16 0
5.90473e-16 4.00408e-16 0
-8.18341e-16 -5.54581e-16 0
1.13075e-15 7.65911e-16 0
-1.55778e-15 -1.05471e-15 0
2.1396e-15 1.44824e-15 0
-2.92995e-15 -1.98283e-15 0
3.99996e-15 2.707e-15 0
-5.44444e-15 -3.68486e-15 0
7.38742e-15 5.00175e-15 0
-9.99401e-15 -6.7693e-15 0
1.3477e-14 9.13593e-15 0
-1.81204e-14 -1.22932e-14 0
2.42825e-14 1.64967e-14 0
-3.24474e-14 -2.20701e-14 0
4.3204e-14 2.94503e-14 0
-5.7373e-14 -3.91733e-14 0
7.58913e-14 5.19845e-14 0
-1.00154e-13 -6.87493e-14 0
1.31577e-13 9.07459e-14 0
-1.72574e-13 -1.19317e-13 0
2.25076e-13 1.56698e-13 0
-2.93437e-13 -2.04826e-13 0
3.79673e-13 2.67772e-13 0
-4.92225e-13 -3.47889e-13 0
6.31065e-13 4.53122e-13 0
-8.14273e-13 -5.84872e-13 0
1.03216e-12 7.60135e-13 0
-1.3278e-12 -9.73957e-13 0
1.65721e-12 1.26661e-12 0
-2.13245e-12 -1.60856e-12 0
2.59905e-12 2.10437e-12 0
-3.36618e-12 -2.6421e-12 0
3.93936e-12 3.51121e-12 0
-5.20306e-12 -4.33504e-12 0
5.64872e-12 5.9372e-12 0
-7.86863e-12 -7.07918e-12 0
7.39576e-12 1.00896e-11 0
-1.19118e-11 -1.08653e-11 0
8.29897e-12 1.60144e-11 0
-1.9075e-11 -1.24752e-11 0
5.36951e-12 2.13205e-11 0
-3.3525e-11 -7.42936e-12 0
-3.00784e-23 1.0776e-23 0
-3.56018e-23 1.93048e-23 0
-7.11706e-23 3.46451e-23 0
1.23206e-23 -2.96176e-23 0
-8.91477e-23 5.59992e-26 0
2.99502e-23 -2.27404e-23 0
-1.6409e-23 -1.36819e-23 0
2.74382e-23 -1.1492e-23 0
-6.8859e-24 -8.17815e-24 0
2.02377e-23 -2.23974e-23 0
4.09759e-24 5.89506e-24 0
-4.80347e-23 2.66941e-23 0
-3.68419e-23 1.07681e-23 0
2.65875e-23 -3.71877e-24 0
-3.24737e-23 -1.61971e-23 0
7.00092e-23 4.22651e-23 0
-5.72956e-23 -6.36056e-23 0
7.84047e-23 9.7455e-23 0
-1.77628e-22 -1.08941e-22 0
2.19267e-22 2.18376e-22 0
-3.38517e-22 -2.93707e-22 0
6.27095e-22 3.981e-22 0
-7.97029e-22 -6.85376e-22 0
1.31576e-21 9.95488e-22 0
-2.03833e-21 -1.49468e-21 0
3.08052e-21 2.31218e-21 0
-4.63673e-21 -3.53409e-21 0
7.14191e-21 5.3037e-21 0
-1.06851e-20 -8.05639e-21 0
1.61206e-20 1.2117e-20 0
-2.43585e-20 -1.81054e-20 0
3.63141e-20 2.71822e-20 0
-5.44024e-20 -4.05301e-20 0
8.11384e-20 6.02796e-20 0
-1.20457e-19 -8.95604e-20 0
1.78628e-19 1.32524e-19 0
-2.64021e-19 -1.95621e-19 0
3.88974e-19 2.88069e-19 0
-5.71784e-19 -4.22809e-19 0
8.37911e-19 6.18949e-19 0
-1.22428e-18 -9.0355e-19 0
1.78418e-18 1.31531e-18 0
-2.59221e-18 -1.90938e-18 0
3.7557e-18 2.76392e-18 0
-5.42595e-18 -3.9896e-18 0
7.81621e-18 5.74269e-18 0
-1.12273e-17 -8.24267e-18 0
1.60806e-17 1.17975e-17 0
-2.2965e-17 -1.68376e-17 0
3.2702e-17 2.39627e-17 0
-4.6432e-17 -3.40059e-17 0
6.57344e-17 4.8121e-17 0
-9.2789e-17 -6.79005e-17 0
1.30594e-16 9.55365e-17 0
-1.83262e-16 -1.34036e-16 0
2.5641e-16 1.87511e-16 0
-3.57691e-16 -2.61566e-16 0
4.97493e-16 3.63822e-16 0
-6.89869e-16 -5.04594e-16 0
9.5376e-16 6.97819e-16 0
-1.31463e-15 -9.62247e-16 0
1.80653e-15 1.32305e-15 0
-2.47495e-15 -1.81386e-15 0
3.38026e-15 2.47957e-15 0
-4.6026e-15 -3.37975e-15 0
6.24734e-15 4.59343e-15 0
-8.45366e-15 -6.22471e-15 0
1.14027e-14 8.41109e-15 0
-1.53326e-14 -1.1332e-14 0
2.05494e-14 1.52237e-14 0
-2.74551e-14 -2.03912e-14 0
3.65567e-14 2.72363e-14 0
-4.85241e-14 -3.62694e-14 0
6.41774e-14 4.81674e-14 0
-8.46215e-14 -6.37693e-14 0
1.11142e-13 8.42095e-14 0
-1.45552e-13 -1.10837e-13 0
1.89773e-13 1.45553e-13 0
-2.46803e-13 -1.90457e-13 0
3.19265e-13 2.48779e-13 0
-4.12264e-13 -3.23604e-13 0
5.28679e-13 4.20593e-13 0
-6.77764e-13 -5.43775e-13 0
8.60382e-13 7.03665e-13 0
-1.0951e-12 -9.03927e-13 0
1.37266e-12 1.16586e-12 0
-1.7352e-12 -1.48699e-12 0
2.13762e-12 1.91503e-12 0
-2.68719e-12 -2.42099e-12 0
3.22532e-12 3.12138e-12 0
-4.04914e-12 -3.89293e-12 0
4.6605e-12 5.03445e-12 0
-5.92431e-12 -6.10788e-12 0
6.35234e-12 7.89648e-12 0
-8.50287e-12 -8.97084e-12 0
7.99797e-12 1.14816e-11 0
-1.23314e-11 -1.12121e-11 0
8.64285e-12 1.47e-11 0
-1.87296e-11 -1.07594e-11 0
5.43204e-12 1.94505e-11 0
-3.20386e-11 -7.38943e-12 0
1.63656e-23 -1.77929e-23 0
-1.03933e-24 -1.54341e-23 0
5.93692e-23 2.24393e-24 0
1.89495e-23 1.90008e-23 0
-6.01567e-23 4.7408e-23 0
2.39259e-23 -5.86808e-25 0
-7.33274e-24 1.42133e-23 0
-2.51183e-23 1.12246e-23 0
3.7177e-23 -5.3356e-25 0
-5.53543e-23 2.69005e-23 0
1.48472e-23 -2.42177e-23 0
3.43738e-23 8.08048e-24 0
-3.98936e-23 -6.02832e-24 0
8.99913e-23 2.6926e-23 0
-1.0085e-22 -2.36745e-23 0
6.53112e-23 8.32317e-23 0
-1.01931e-22 -1.152e-22 0
1.75421e-22 1.78409e-22 0
-2.5966e-22 -2.63754e-22 0
4.54858e-22 3.53817e-22 0
-7.04656e-22 -5.5568e-22 0
1.05599e-21 8.51342e-22 0
-1.64103e-21 -1.25613e-21 0
2.52549e-21 1.97221e-21 0
-3.78414e-21 -3.01522e-21 0
5.74881e-21 4.57203e-21 0
-8.70452e-21 -6.8865e-21 0
1.3088e-20 1.03829e-20 0
-1.97455e-20 -1.55922e-20 0
2.96756e-20 2.32918e-20 0
-4.42491e-20 -3.48741e-20 0
6.60734e-20 5.19333e-20 0
-9.81704e-20 -7.71296e-20 0
1.45545e-19 1.14327e-19 0
-2.15269e-19 -1.68899e-19 0
3.17341e-19 2.48878e-19 0
-4.66652e-19 -3.65733e-19 0
6.84312e-19 5.35846e-19 0
-1.00043e-18 -7.83003e-19 0
1.45854e-18 1.14096e-18 0
-2.1204e-18 -1.65792e-18 0
3.07365e-18 2.40243e-18 0
-4.443e-18 -3.47137e-18 0
6.4039e-18 5.00189e-18 0
-9.20364e-18 -7.18695e-18 0
1.31895e-17 1.02973e-17 0
-1.88467e-17 -1.47122e-17 0
2.68523e-17 2.09604e-17 0
-3.81472e-17 -2.97772e-17 0
5.40345e-17 4.21827e-17 0
-7.63143e-17 -5.95861e-17 0
1.07463e-16 8.39292e-17 0
-1.50879e-16 -1.17879e-16 0
2.11206e-16 1.65087e-16 0
-2.94772e-16 -2.30535e-16 0
4.10169e-16 3.21004e-16 0
-5.69024e-16 -4.45685e-16 0
7.87009e-16 6.17003e-16 0
-1.08519e-15 -8.51698e-16 0
1.49175e-15 1.17225e-15 0
-2.04431e-15 -1.60875e-15 0
2.79282e-15 2.20134e-15 0
-3.80348e-15 -3.00339e-15 0
5.16348e-15 4.08568e-15 0
-6.98752e-15 -5.54161e-15 0
9.42537e-15 7.4943e-15 0
-1.26727e-14 -1.0105e-14 0
1.69823e-14 1.35851e-14 0
-2.26827e-14 -1.82091e-14 0
3.01927e-14 2.43353e-14 0
-4.00543e-14 -3.24242e-14 0
5.29466e-14 4.30753e-14 0
-6.97494e-14 -5.70492e-14 0
9.15356e-14 7.53375e-14 0
-1.1971e-13 -9.91744e-14 0
1.55909e-13 1.30184e-13 0
-2.02349e-13 -1.70326e-13 0
2.614e-13 2.22244e-13 0
-3.36539e-13 -2.88958e-13 0
4.3089e-13 3.74782e-13 0
-5.5e-13 -4.84144e-13 0
6.97123e-13 6.24189e-13 0
-8.81614e-13 -8.00808e-13 0
1.10417e-12 1.02628e-12 0
-1.38244e-12 -1.30658e-12 0
1.70572e-12 1.66422e-12 0
-2.11313e-12 -2.09857e-12 0
2.55605e-12 2.65466e-12 0
-3.13586e-12 -3.30086e-12 0
3.68963e-12 4.13599e-12 0
-4.50768e-12 -5.01775e-12 0
5.09263e-12 6.18767e-12 0
-6.3052e-12 -7.16109e-12 0
6.66571e-12 8.62175e-12 0
-8.71695e-12 -9.15141e-12 0
8.08241e-12 1.09472e-11 0
-1.2224e-11 -1.01554e-11 0
8.36504e-12 1.37169e-11 0
-1.83576e-11 -1.0345e-11 0
5.13519e-12 1.96113e-11 0
-3.18117e-11 -8.14e-12 0
-1.25845e-23 4.36903e-23 0
-1.57005e-24 -1.34809e-23 0
6.57854e-23 -1.03903e-24 0
6.84784e-23 -3.60122e-23 0
-2.21275e-23 5.53832e-23 0
-1.43965e-22 9.91923e-23 0
2.59029e-23 8.46993e-24 0
4.41807e-23 -3.38075e-23 0
1.0595e-22 -4.83978e-23 0
9.29192e-23 8.68497e-25 0
-1.33077e-22 2.77645e-23 0
-5.98302e-23 8.08113e-23 0
-1.41985e-22 2.25288e-24 0
1.10578e-22 4.6011e-24 0
6.38835e-23 -1.63817e-22 0
1.77271e-22 1.01526e-22 0
-2.60622e-22 -1.80723e-22 0
2.44565e-22 3.41263e-22 0
-6.33936e-22 -4.35211e-22 0
8.43151e-22 6.99442e-22 0
-1.2188e-21 -1.10927e-21 0
2.07215e-21 1.61503e-21 0
-3.04594e-21 -2.53158e-21 0
4.51834e-21 3.83904e-21 0
-7.01255e-21 -5.76582e-21 0
1.04529e-20 8.71057e-21 0
-1.56775e-20 -1.31527e-20 0
2.37598e-20 1.95798e-20 0
-3.53707e-20 -2.9325e-20 0
5.2691e-20 4.37586e-20 0
-7.86008e-20 -6.4956e-20 0
1.16383e-19 9.6426e-20 0
-1.7225e-19 -1.42544e-19 0
2.54235e-19 2.10164e-19 0
-3.7376e-19 -3.09144e-19 0
5.48467e-19 4.53256e-19 0
-8.02295e-19 -6.62823e-19 0
1.17002e-18 9.66714e-19 0
-1.70186e-18 -1.40585e-18 0
2.46811e-18 2.03888e-18 0
-3.56911e-18 -2.94874e-18 0
5.14698e-18 4.25236e-18 0
-7.40057e-18 -6.11542e-18 0
1.06104e-17 8.76982e-18 0
-1.51687e-17 -1.25408e-17 0
2.16216e-17 1.78827e-17 0
-3.073e-17 -2.54277e-17 0
4.35477e-17 3.60531e-17 0
-6.15296e-17 -5.0973e-17 0
8.66801e-17 7.1861e-17 0
-1.21748e-16 -1.01018e-16 0
1.70493e-16 1.41597e-16 0
-2.38037e-16 -1.97905e-16 0
3.31335e-16 2.75804e-16 0
-4.59799e-16 -3.83251e-16 0
6.3612e-16 5.31008e-16 0
-8.77344e-16 -7.33581e-16 0
1.20628e-15 1.01047e-15 0
-1.65337e-15 -1.38777e-15 0
2.25899e-15 1.90033e-15 0
-3.07662e-15 -2.59449e-15 0
4.1767e-15 3.53168e-15 0
-5.65169e-15 -4.79305e-15 0
7.62235e-15 6.48543e-15 0
-1.02459e-14 -8.74888e-15 0
1.37259e-14 1.17666e-14 0
-1.83248e-14 -1.57768e-14 0
2.43789e-14 2.10892e-14 0
-3.23186e-14 -2.81028e-14 0
4.26872e-14 3.73333e-14 0
-5.61761e-14 -4.94387e-14 0
7.36418e-14 6.52644e-14 0
-9.61701e-14 -8.58759e-14 0
1.2507e-13 1.12639e-13 0
-1.62008e-13 -1.47242e-13 0
2.08901e-13 1.91857e-13 0
-2.68249e-13 -2.49092e-13 0
3.42691e-13 3.22349e-13 0
-4.35908e-13 -4.15507e-13 0
5.51127e-13 5.33823e-13 0
-6.93794e-13 -6.82709e-13 0
8.66815e-13 8.70228e-13 0
-1.07872e-12 -1.10296e-12 0
1.32897e-12 1.39332e-12 0
-1.63315e-12 -1.74635e-12 0
1.97817e-12 2.18176e-12 0
-2.3996e-12 -2.69299e-12 0
2.84621e-12 3.31446e-12 0
-3.41531e-12 -3.99746e-12 0
3.94415e-12 4.81676e-12 0
-4.71936e-12 -5.60151e-12 0
5.2495e-12 6.56977e-12 0
-6.38654e-12 -7.23886e-12 0
6.66368e-12 8.34524e-12 0
-8.60401e-12 -8.60067e-12 0
7.88025e-12 1.03508e-11 0
-1.19447e-11 -9.84946e-12 0
8.12002e-12 1.37756e-11 0
-1.81582e-11 -1.0735e-11 0
5.03889e-12 2.00884e-11 0
-3.18073e-11 -8.72857e-12 0
6.07694e-24 -2.35472e-23 0
-6.39729e-25 -2.20506e-23 0
-2.40073e-22 1.0199e-22 0
-2.36682e-22 8.26037e-23 0
2.67942e-22 -1.41033e-22 0
1.12937e-22 -6.54452e-23 0
1.49294e-22 -7.65678e-23 0
-1.04841e-22 7.66021e-23 0
-3.82242e-22 1.18991e-22 0
7.63511e-23 -8.48987e-25 0
-4.77076e-23 -2.31753e-23 0
3.61803e-22 -1.04885e-22 0
1.99848e-22 -1.6325e-22 0
-9.21435e-23 1.9722e-22 0
-2.24436e-22 -1.25888e-22 0
1.00096e-22 3.14507e-22 0
-4.32279e-22 -3.81295e-22 0
9.42975e-22 4.72778e-22 0
-9.57125e-22 -9.11925e-22 0
1.60374e-21 1.35128e-21 0
-2.58877e-21 -1.97091e-21 0
3.37585e-21 3.24092e-21 0
-5.40393e-21 -4.76046e-21 0
8.19503e-21 7.18113e-21 0
-1.22182e-20 -1.08431e-20 0
1.86464e-20 1.61303e-20 0
-2.79366e-20 -2.4094e-20 0
4.13637e-20 3.60818e-20 0
-6.1723e-20 -5.36014e-20 0
9.14353e-20 7.96059e-20 0
-1.35286e-19 -1.17826e-19 0
1.99961e-19 1.73717e-19 0
-2.94239e-19 -2.55671e-19 0
4.31766e-19 3.75174e-19 0
-6.3208e-19 -5.48926e-19 0
9.21954e-19 8.01232e-19 0
-1.3414e-18 -1.16608e-18 0
1.94618e-18 1.69234e-18 0
-2.81531e-18 -2.44936e-18 0
4.06153e-18 3.53483e-18 0
-5.84238e-18 -5.08708e-18 0
8.37948e-18 7.30058e-18 0
-1.1984e-17 -1.04474e-17 0
1.70886e-17 1.49085e-17 0
-2.42959e-17 -2.12143e-17 0
3.44418e-17 3.01012e-17 0
-4.86802e-17 -4.25888e-17 0
6.86001e-17 6.00844e-17 0
-9.63829e-17 -8.45231e-17 0
1.3501e-16 1.18559e-16 0
-1.88545e-16 -1.65819e-16 0
2.62505e-16 2.31244e-16 0
-3.64355e-16 -3.2154e-16 0
5.04157e-16 4.45784e-16 0
-6.95423e-16 -6.16216e-16 0
9.56233e-16 8.49287e-16 0
-1.31068e-15 -1.16703e-15 0
1.79073e-15 1.59886e-15 0
-2.43868e-15 -2.18388e-15 0
3.31016e-15 2.97394e-15 0
-4.47813e-15 -4.03749e-15 0
6.03776e-15 5.46459e-15 0
-8.11273e-15 -7.37325e-15 0
1.08628e-14 9.91761e-15 0
-1.44938e-14 -1.3298e-14 0
1.92685e-14 1.77741e-14 0
-2.55221e-14 -2.36804e-14 0
3.36776e-14 3.14472e-14 0
-4.42685e-14 -4.16234e-14 0
5.79579e-14 5.49091e-14 0
-7.55739e-14 -7.21876e-14 0
9.81247e-14 9.45762e-14 0
-1.26858e-13 -1.23464e-13 0
1.63249e-13 1.60596e-13 0
-2.09117e-13 -2.08095e-13 0
2.66509e-13 2.68617e-13 0
-3.37986e-13 -3.45288e-13 0
4.26162e-13 4.42023e-13 0
-5.34538e-13 -5.63163e-13 0
6.65971e-13 7.14257e-13 0
-8.25237e-13 -9.00716e-13 0
1.01429e-12 1.13001e-12 0
-1.24026e-12 -1.4073e-12 0
1.50102e-12 1.74211e-12 0
-1.81003e-12 -2.13484e-12 0
2.15249e-12 2.59773e-12 0
-2.56183e-12 -3.11457e-12 0
2.98643e-12 3.70693e-12 0
-3.52209e-12 -4.3153e-12 0
4.00872e-12 5.00612e-12 0
-4.73041e-12 -5.61924e-12 0
5.20364e-12 6.39791e-12 0
-6.27324e-12 -6.92555e-12 0
6.49865e-12 7.99196e-12 0
-8.38697e-12 -8.37086e-12 0
7.67846e-12 1.03252e-11 0
-1.17404e-11 -1.00376e-11 0
8.01732e-12 1.40221e-11 0
-1.80076e-11 -1.10582e-11 0
5.05802e-12 2.03303e-11 0
-3.16352e-11 -9.1208e-12 0
3.56738e-24 3.29166e-23 0
4.4059e-24 4.2063e-25 0
7.54576e-22 -3.20594e-22 0
-1.19738e-22 8.18111e-23 0
-3.87705e-22 1.43551e-22 0
-1.4636e-22 9.16224e-23 0
-3.79524e-22 1.35554e-22 0
6.74183e-22 -2.94275e-22 0
1.6965e-22 -8.62792e-23 0
9.77376e-24 4.26779e-23 0
-1.30439e-22 -3.24956e-24 0
-7.54737e-22 4.68362e-22 0
-9.40663e-23 -1.33138e-22 0
4.52794e-22 9.62386e-23 0
-1.3536e-22 -4.12767e-22 0
9.48726e-22 2.87851e-22 0
-1.1702e-21 -5.63115e-22 0
8.94919e-22 1.24048e-21 0
-1.92513e-21 -1.62086e-21 0
2.80464e-21 2.50814e-21 0
-3.56764e-21 -4.1012e-21 0
6.49022e-21 5.71693e-21 0
-9.58911e-21 -8.68804e-21 0
1.42431e-20 1.31e-20 0
-2.19748e-20 -1.93004e-20 0
3.20163e-20 2.91398e-20 0
-4.76086e-20 -4.33856e-20 0
7.07518e-20 6.43894e-20 0
-1.04589e-19 -9.53949e-20 0
1.54709e-19 1.40715e-19 0
-2.27742e-19 -2.07162e-19 0
3.3413e-19 3.04277e-19 0
-4.89301e-19 -4.4544e-19 0
7.14e-19 6.50543e-19 0
-1.03905e-18 -9.47365e-19 0
1.50819e-18 1.37569e-18 0
-2.18242e-18 -1.99227e-18 0
3.14937e-18 2.87697e-18 0
-4.53187e-18 -4.1428e-18 0
6.50181e-18 5.94907e-18 0
-9.30123e-18 -8.5186e-18 0
1.32671e-17 1.21634e-17 0
-1.88678e-17 -1.73186e-17 0
2.67542e-17 2.4588e-17 0
-3.78239e-17 -3.48089e-17 0
5.33138e-17 4.91368e-17 0
-7.49213e-17 -6.91617e-17 0
1.04967e-16 9.70652e-17 0
-1.46611e-16 -1.35829e-16 0
2.04148e-16 1.89518e-16 0
-2.83383e-16 -2.63648e-16 0
3.92137e-16 3.6569e-16 0
-5.40912e-16 -5.05716e-16 0
7.43747e-16 6.97263e-16 0
-1.01934e-15 -9.58462e-16 0
1.39249e-15 1.31351e-15 0
-1.89594e-15 -1.79457e-15 0
2.57275e-15 2.44425e-15 0
-3.47929e-15 -3.31879e-15 0
4.68901e-15 4.49207e-15 0
-6.29715e-15 -6.06085e-15 0
8.42656e-15 8.15128e-15 0
-1.12349e-14 -1.09271e-14 0
1.49235e-14 1.46e-14 0
-1.97477e-14 -1.94423e-14 0
2.60294e-14 2.58028e-14 0
-3.41723e-14 -3.41255e-14 0
4.46776e-14 4.49738e-14 0
-5.81656e-14 -5.90562e-14 0
7.53928e-14 7.72618e-14 0
-9.72822e-14 -1.00693e-13 0
1.24932e-13 1.30716e-13 0
-1.59666e-13 -1.68993e-13 0
2.03003e-13 2.17555e-13 0
-2.56757e-13 -2.78806e-13 0
3.22892e-13 3.5564e-13 0
-4.03782e-13 -4.51331e-13 0
5.01713e-13 5.69767e-13 0
-6.19677e-13 -7.14977e-13 0
7.59835e-13 8.91753e-13 0
-9.2604e-13 -1.10412e-12 0
1.11918e-12 1.35727e-12 0
-1.34514e-12 -1.65305e-12 0
1.60067e-12 1.99639e-12 0
-1.89814e-12 -2.38219e-12 0
2.22237e-12 2.81668e-12 0
-2.6063e-12 -3.27926e-12 0
2.99956e-12 3.79049e-12 0
-3.49787e-12 -4.29838e-12 0
3.94503e-12 4.88553e-12 0
-4.62435e-12 -5.4214e-12 0
5.06301e-12 6.17617e-12 0
-6.1016e-12 -6.75674e-12 0
6.32454e-12 7.92708e-12 0
-8.20961e-12 -8.42925e-12 0
7.54362e-12 1.0436e-11 0
-1.15894e-11 -1.01872e-11 0
7.94198e-12 1.41293e-11 0
-1.78359e-11 -1.12525e-11 0
5.07905e-12 2.04316e-11 0
-3.13698e-11 -9.47823e-12 0
1.31465e-23 -3.63691e-23 0
6.03409e-23 -3.07382e-23 0
-2.02939e-22 7.99297e-23 0
2.79708e-23 9.12257e-24 0
4.92913e-23 -2.9251e-23 0
1.46746e-23 1.97435e-23 0
1.10898e-22 -5.94695e-23 0
-7.19102e-23 6.44683e-23 0
-8.13514e-23 -2.01861e-23 0
6.98623e-23 7.51228e-23 0
-1.47294e-22 -8.33225e-23 0
3.14145e-22 7.84383e-23 0
-2.67767e-22 -2.58389e-22 0
3.89835e-22 3.70068e-22 0
-6.71427e-22 -5.39471e-22 0
7.29761e-22 9.66386e-22 0
-1.30019e-21 -1.36162e-21 0
2.20409e-21 1.95618e-21 0
-3.18808e-21 -3.03061e-21 0
4.9055e-21 4.54423e-21 0
-7.37503e-21 -6.83121e-21 0
1.08247e-20 1.03671e-20 0
-1.63345e-20 -1.5483e-20 0
2.43462e-20 2.31124e-20 0
-3.6122e-20 -3.44867e-20 0
5.38193e-20 5.11236e-20 0
-7.97396e-20 -7.56871e-20 0
1.17635e-19 1.11854e-19 0
-1.73436e-19 -1.64671e-19 0
2.54505e-19 2.4194e-19 0
-3.72475e-19 -3.54571e-19 0
5.43885e-19 5.17959e-19 0
-7.9165e-19 -7.54686e-19 0
1.14924e-18 1.09652e-18 0
-1.66373e-18 -1.58864e-18 0
2.40136e-18 2.29532e-18 0
-3.45629e-18 -3.3069e-18 0
4.96002e-18 4.75101e-18 0
-7.09697e-18 -6.80656e-18 0
1.01251e-17 9.72373e-18 0
-1.44025e-17 -1.38515e-17 0
2.0426e-17 1.96751e-17 0
-2.88823e-17 -2.78665e-17 0
4.07164e-17 3.93545e-17 0
-5.72251e-17 -5.54168e-17 0
8.01816e-17 7.7807e-17 0
-1.12e-16 -1.08923e-16 0
1.55959e-16 1.52032e-16 0
-2.16488e-16 -2.11571e-16 0
2.99556e-16 2.93547e-16 0
-4.13167e-16 -4.06056e-16 0
5.68019e-16 5.59983e-16 0
-7.78342e-16 -7.69895e-16 0
1.06299e-15 1.05522e-15 0
-1.44685e-15 -1.44179e-15 0
1.96257e-15 1.96377e-15 0
-2.65287e-15 -2.6662e-15 0
3.57327e-15 3.60824e-15 0
-4.79568e-15 -4.86719e-15 0
6.41262e-15 6.5437e-15 0
-8.54262e-15 -8.76815e-15 0
1.13365e-14 1.17087e-14 0
-1.49851e-14 -1.5581e-14 0
1.97283e-14 2.06605e-14 0
-2.58658e-14 -2.72967e-14 0
3.37683e-14 3.59306e-14 0
-4.38924e-14 -4.7115e-14 0
5.67936e-14 6.15386e-14 0
-7.31443e-14 -8.00513e-14 0
9.37449e-14 1.03696e-13 0
-1.19547e-13 -1.33735e-13 0
1.51651e-13 1.71689e-13 0
-1.91343e-13 -2.1935e-13 0
2.40048e-13 2.78827e-13 0
-2.99412e-13 -3.52509e-13 0
3.71138e-13 4.43125e-13 0
-4.57228e-13 -5.53564e-13 0
5.5948e-13 6.87009e-13 0
-6.80277e-13 -8.46382e-13 0
8.21095e-13 1.03485e-12 0
-9.85034e-13 -1.25426e-12 0
1.17231e-12 1.50711e-12 0
-1.38822e-12 -1.7923e-12 0
1.62929e-12 2.11202e-12 0
-1.90778e-12 -2.45976e-12 0
2.20921e-12 2.84263e-12 0
-2.56702e-12 -3.24527e-12 0
2.93288e-12 3.69752e-12 0
-3.4032e-12 -4.16197e-12 0
3.82636e-12 4.73389e-12 0
-4.48521e-12 -5.29276e-12 0
4.91574e-12 6.09848e-12 0
-5.94929e-12 -6.74324e-12 0
6.1852e-12 7.9517e-12 0
-8.0656e-12 -8.47438e-12 0
7.42364e-12 1.04655e-11 0
-1.14359e-11 -1.02474e-11 0
7.84974e-12 1.41757e-11 0
-1.76517e-11 -1.14062e-11 0
5.07996e-12 2.05292e-11 0
-3.11055e-11 -9.85554e-12 0
-4.40053e-23 6.99202e-23 0
-3.14363e-24 3.22678e-23 0
-7.41891e-23 6.02166e-24 0
-5.255e-23 8.54231e-23 0
2.19902e-24 -5.45733e-23 0
2.89761e-23 2.5405e-23 0
-2.76526e-23 -1.21082e-22 0
3.78051e-23 -4.317e-23 0
-1.12486e-22 -1.62473e-22 0
1.8405e-22 9.3902e-23 0
-1.83959e-22 -2.47338e-22 0
3.88151e-22 3.13925e-22 0
-4.56224e-22 -4.54145e-22 0
7.34903e-22 7.21915e-22 0
-1.04583e-21 -1.08734e-21 0
1.55482e-21 1.6928e-21 0
-2.46337e-21 -2.22131e-21 0
3.66038e-21 3.54284e-21 0
-5.33985e-21 -5.3798e-21 0
8.1767e-21 8.01078e-21 0
-1.21468e-20 -1.21604e-20 0
1.82467e-20 1.80075e-20 0
-2.72066e-20 -2.68139e-20 0
4.03135e-20 3.98927e-20 0
-5.97229e-20 -5.90727e-20 0
8.82254e-20 8.71962e-20 0
-1.29805e-19 -1.28631e-19 0
1.9065e-19 1.88985e-19 0
-2.79226e-19 -2.76976e-19 0
4.07642e-19 4.04849e-19 0
-5.93574e-19 -5.90093e-19 0
8.61898e-19 8.57663e-19 0
-1.24782e-18 -1.2432e-18 0
1.80147e-18 1.79691e-18 0
-2.59324e-18 -2.58991e-18 0
3.72214e-18 3.72242e-18 0
-5.32661e-18 -5.33508e-18 0
7.60047e-18 7.62448e-18 0
-1.08127e-17 -1.08652e-17 0
1.53366e-17 1.54389e-17 0
-2.16877e-17 -2.18744e-17 0
3.05758e-17 3.09024e-17 0
-4.29747e-17 -4.35287e-17 0
6.02146e-17 6.11336e-17 0
-8.41079e-17 -8.56042e-17 0
1.17112e-16 1.19512e-16 0
-1.62548e-16 -1.66351e-16 0
2.24886e-16 2.30843e-16 0
-3.10118e-16 -3.1936e-16 0
4.26244e-16 4.40457e-16 0
-5.83896e-16 -6.05581e-16 0
7.97148e-16 8.29989e-16 0
-1.08454e-15 -1.13394e-15 0
1.47039e-15 1.54421e-15 0
-1.98643e-15 -2.09607e-15 0
2.67387e-15 2.83574e-15 0
-3.58593e-15 -3.82357e-15 0
4.79098e-15 5.13792e-15 0
-6.37639e-15 -6.88012e-15 0
8.45305e-15 9.1805e-15 0
-1.11609e-14 -1.22058e-14 0
1.46752e-14 1.61681e-14 0
-1.92142e-14 -2.13355e-14 0
2.50473e-14 2.80452e-14 0
-3.25045e-14 -3.67173e-14 0
4.19861e-14 4.78725e-14 0
-5.39744e-14 -6.21497e-14 0
6.90421e-14 8.03266e-14 0
-8.78654e-14 -1.03339e-13 0
1.11228e-13 1.32301e-13 0
-1.40034e-13 -1.6852e-13 0
1.75298e-13 2.13508e-13 0
-2.1817e-13 -2.68975e-13 0
2.69878e-13 3.36831e-13 0
-3.31804e-13 -4.1911e-13 0
4.05321e-13 5.17981e-13 0
-4.92032e-13 -6.35522e-13 0
5.93303e-13 7.73832e-13 0
-7.11066e-13 -9.34487e-13 0
8.46399e-13 1.11912e-12 0
-1.00209e-12 -1.32808e-12 0
1.17823e-12 1.56271e-12 0
-1.38016e-12 -1.82165e-12 0
1.60483e-12 2.10829e-12 0
-1.86499e-12 -2.41948e-12 0
2.14729e-12 2.76762e-12 0
-2.48593e-12 -3.14459e-12 0
2.83466e-12 3.58643e-12 0
-3.29021e-12 -4.05973e-12 0
3.70419e-12 4.65551e-12 0
-4.35635e-12 -5.24559e-12 0
4.78748e-12 6.07319e-12 0
-5.81636e-12 -6.72933e-12 0
6.05698e-12 7.93184e-12 0
-7.92199e-12 -8.46429e-12 0
7.29622e-12 1.04577e-11 0
-1.12755e-11 -1.02907e-11 0
7.75041e-12 1.422e-11 0
-1.74691e-11 -1.1568e-11 0
5.07408e-12 2.0649e-11 0
-3.08589e-11 -1.02422e-11 0
5.6264e-23 -1.21535e-22 0
5.24861e-23 -4.15377e-23 0
1.21368e-22 -1.23554e-22 0
2.94729e-23 8.57829e-24 0
-8.43754e-23 4.23644e-24 0
1.51238e-23 5.56121e-23 0
-1.15941e-22 2.23647e-23 0
1.47951e-22 1.4076e-22 0
-2.39534e-22 -1.01751e-22 0
1.60186e-22 2.77889e-22 0
-5.31614e-22 -2.90132e-22 0
4.29169e-22 5.61098e-22 0
-7.95415e-22 -8.04241e-22 0
1.14189e-21 1.21589e-21 0
-1.71757e-21 -1.82344e-21 0
2.76284e-21 2.60963e-21 0
-4.01484e-21 -4.10806e-21 0
5.79136e-21 6.26568e-21 0
-9.11408e-21 -9.18426e-21 0
1.33961e-20 1.38643e-20 0
-2.01224e-20 -2.04987e-20 0
2.98243e-20 3.05035e-20 0
-4.40684e-20 -4.52775e-20 0
6.50698e-20 6.68961e-20 0
-9.5913e-20 -9.85701e-20 0
1.40642e-19 1.45055e-19 0
-2.06051e-19 -2.12579e-19 0
3.00975e-19 3.10793e-19 0
-4.38119e-19 -4.53221e-19 0
6.36225e-19 6.59016e-19 0
-9.21449e-19 -9.55422e-19 0
1.33022e-18 1.38152e-18 0
-1.91517e-18 -1.99182e-18 0
2.74925e-18 2.86365e-18 0
-3.9347e-18 -4.10549e-18 0
5.6145e-18 5.8691e-18 0
-7.98809e-18 -8.36593e-18 0
1.13303e-17 1.18908e-17 0
-1.60227e-17 -1.68514e-17 0
2.25889e-17 2.38117e-17 0
-3.17473e-17 -3.35478e-17 0
4.44802e-17 4.71243e-17 0
-6.21228e-17 -6.59973e-17 0
8.64873e-17 9.21497e-17 0
-1.20019e-16 -1.28274e-16 0
1.66007e-16 1.78012e-16 0
-2.2886e-16 -2.46269e-16 0
3.14451e-16 3.39632e-16 0
-4.30586e-16 -4.66905e-16 0
5.87578e-16 6.39814e-16 0
-7.98999e-16 -8.73911e-16 0
1.08262e-15 1.18973e-15 0
-1.4616e-15 -1.61427e-15 0
1.96594e-15 2.18288e-15 0
-2.63435e-15 -2.94159e-15 0
3.51641e-15 3.95007e-15 0
-4.67533e-15 -5.2853e-15 0
6.19118e-15 7.046e-15 0
-8.16466e-15 -9.35809e-15 0
1.07216e-14 1.23812e-14 0
-1.40183e-14 -1.63164e-14 0
1.82467e-14 2.14154e-14 0
-2.36415e-14 -2.79903e-14 0
3.04866e-14 3.64261e-14 0
-3.91222e-14 -4.71923e-14 0
4.99521e-14 6.08569e-14 0
-6.34504e-14 -7.80988e-14 0
8.01669e-14 9.97203e-14 0
-1.00733e-13 -1.26656e-13 0
1.25861e-13 1.59977e-13 0
-1.56352e-13 -2.00889e-13 0
1.93078e-13 2.50724e-13 0
-2.37005e-13 -3.10906e-13 0
2.89142e-13 3.82931e-13 0
-3.50616e-13 -4.68283e-13 0
4.22529e-13 5.68434e-13 0
-5.06216e-13 -6.84665e-13 0
6.0281e-13 8.18233e-13 0
-7.14074e-13 -9.69984e-13 0
8.41038e-13 1.14112e-12 0
-9.86549e-13 -1.33214e-12 0
1.15097e-12 1.54536e-12 0
-1.34e-12 -1.78152e-12 0
1.55122e-12 2.04695e-12 0
-1.79792e-12 -2.34215e-12 0
2.06772e-12 2.68251e-12 0
-2.39518e-12 -3.06153e-12 0
2.73523e-12 3.51321e-12 0
-3.18353e-12 -4.00023e-12 0
3.59313e-12 4.60622e-12 0
-4.23924e-12 -5.20117e-12 0
4.66734e-12 6.0256e-12 0
-5.68585e-12 -6.68362e-12 0
5.92684e-12 7.88875e-12 0
-7.77575e-12 -8.44595e-12 0
7.16802e-12 1.04515e-11 0
-1.11168e-11 -1.03392e-11 0
7.6536e-12 1.42733e-11 0
-1.72909e-11 -1.17376e-11 0
5.07001e-12 2.07751e-11 0
-3.06183e-11 -1.0624e-11 0
5.22661e-23 6.46286e-23 0
-6.71067e-23 1.05229e-22 0
1.77044e-23 -7.20616e-24 0
1.28608e-22 -1.66301e-23 0
7.82761e-24 -6.72373e-23 0
1.34421e-22 3.52029e-23 0
-2.03293e-22 -1.0043e-22 0
1.17851e-22 1.99884e-22 0
-1.98268e-22 -2.71121e-22 0
4.14001e-22 3.90189e-22 0
-4.9409e-22 -6.18237e-22 0
8.95152e-22 8.88077e-22 0
-1.28479e-21 -1.34729e-21 0
1.81776e-21 2.07456e-21 0
-2.96053e-21 -3.02357e-21 0
4.37074e-21 4.64268e-21 0
-6.41167e-21 -7.02059e-21 0
9.80366e-21 1.03716e-20 0
-1.45147e-20 -1.55192e-20 0
2.15464e-20 2.30367e-20 0
-3.20513e-20 -3.40997e-20 0
4.72886e-20 5.04558e-20 0
-6.95428e-20 -7.44199e-20 0
1.02308e-19 1.0937e-19 0
-1.49678e-19 -1.60476e-19 0
2.18673e-19 2.34652e-19 0
-3.18666e-19 -3.42138e-19 0
4.62528e-19 4.97722e-19 0
-6.69989e-19 -7.2175e-19 0
9.67474e-19 1.04379e-18 0
-1.39273e-18 -1.50536e-18 0
1.99948e-18 2.1647e-18 0
-2.86172e-18 -3.10408e-18 0
4.08344e-18 4.43841e-18 0
-5.80955e-18 -6.32784e-18 0
8.24012e-18 8.99542e-18 0
-1.16518e-17 -1.27501e-17 0
1.64254e-17 1.80187e-17 0
-2.30819e-17 -2.53887e-17 0
3.23341e-17 3.56659e-17 0
-4.51507e-17 -4.99516e-17 0
6.28439e-17 6.9746e-17 0
-8.71848e-17 -9.70843e-17 0
1.20553e-16 1.34717e-16 0
-1.66134e-16 -1.8635e-16 0
2.2817e-16 2.56949e-16 0
-3.12288e-16 -3.53153e-16 0
4.25917e-16 4.8379e-16 0
-5.78819e-16 -6.60554e-16 0
7.83754e-16 8.98866e-16 0
-1.05732e-15 -1.21897e-15 0
1.421e-15 1.64732e-15 0
-1.90241e-15 -2.2183e-15 0
2.53691e-15 2.97639e-15 0
-3.36943e-15 -3.9788e-15 0
4.45675e-15 5.29873e-15 0
-5.87013e-15 -7.02924e-15 0
7.69836e-15 9.28791e-15 0
-1.00513e-14 -1.22223e-14 0
1.30638e-14 1.60163e-14 0
-1.69e-14 -2.08971e-14 0
2.17579e-14 2.71433e-14 0
-2.78743e-14 -3.50933e-14 0
3.55296e-14 4.51537e-14 0
-4.50523e-14 -5.78083e-14 0
5.68231e-14 7.3625e-14 0
-7.1279e-14 -9.32617e-14 0
8.89141e-14 1.17469e-13 0
-1.10284e-13 -1.47088e-13 0
1.36001e-13 1.83043e-13 0
-1.66743e-13 -2.26327e-13 0
2.03238e-13 2.77987e-13 0
-2.46291e-13 -3.39083e-13 0
2.96743e-13 4.10687e-13 0
-3.55561e-13 -4.93818e-13 0
4.23713e-13 5.89505e-13 0
-5.02442e-13 -6.98689e-13 0
5.92863e-13 8.22509e-13 0
-6.96796e-13 -9.62043e-13 0
8.15429e-13 1.11919e-12 0
-9.51842e-13 -1.29568e-12 0
1.10675e-12 1.49547e-12 0
-1.28617e-12 -1.72112e-12 0
1.48815e-12 1.9804e-12 0
-1.72622e-12 -2.27441e-12 0
1.9884e-12 2.61752e-12 0
-2.30886e-12 -3.00116e-12 0
2.6429e-12 3.45603e-12 0
-3.08448e-12 -3.94355e-12 0
3.48814e-12 4.54643e-12 0
-4.12543e-12 -5.13988e-12 0
4.5482e-12 5.96461e-12 0
-5.55579e-12 -6.63351e-12 0
5.79834e-12 7.84848e-12 0
-7.63275e-12 -8.43254e-12 0
7.04404e-12 1.045e-11 0
-1.09623e-11 -1.03919e-11 0
7.56102e-12 1.43291e-11 0
-1.71155e-11 -1.19059e-11 0
5.06838e-12 2.08964e-11 0
-3.03764e-11 -1.09983e-11 0
-3.08042e-23 -8.99603e-23 0
-7.15244e-24 -5.24402e-23 0
-5.37765e-23 -6.63422e-23 0
3.28622e-23 -8.08503e-24 0
-1.35857e-22 -4.63142e-23 0
1.63988e-22 1.83553e-22 0
-2.30811e-22 -1.64098e-22 0
2.32068e-22 3.29384e-22 0
-3.88436e-22 -4.25365e-22 0
5.95269e-22 6.56307e-22 0
-8.31006e-22 -1.02103e-21 0
1.26996e-21 1.6971e-21 0
-2.02815e-21 -2.26443e-21 0
3.11511e-21 3.52101e-21 0
-4.70355e-21 -5.17993e-21 0
6.9151e-21 7.7543e-21 0
-1.05049e-20 -1.15084e-20 0
1.5415e-20 1.71155e-20 0
-2.30319e-20 -2.51847e-20 0
3.38562e-20 3.74436e-20 0
-4.98764e-20 -5.51823e-20 0
7.31855e-20 8.11992e-20 0
-1.0725e-19 -1.19077e-19 0
1.56671e-19 1.74146e-19 0
-2.28274e-19 -2.54072e-19 0
3.3149e-19 3.69634e-19 0
-4.80002e-19 -5.36177e-19 0
6.93162e-19 7.7559e-19 0
-9.97827e-19 -1.11861e-18 0
1.43234e-18 1.60891e-18 0
-2.05001e-18 -2.30728e-18 0
2.92503e-18 3.29954e-18 0
-4.16116e-18 -4.70463e-18 0
5.9014e-18 6.68843e-18 0
-8.34366e-18 -9.48077e-18 0
1.176e-17 1.33989e-17 0
-1.65226e-17 -1.88792e-17 0
2.31399e-17 2.65208e-17 0
-3.23032e-17 -3.71409e-17 0
4.49478e-17 5.18535e-17 0
-6.23347e-17 -7.21678e-17 0
8.61577e-17 1.00123e-16 0
-1.1868e-16 -1.38463e-16 0
1.62913e-16 1.90863e-16 0
-2.22847e-16 -2.6223e-16 0
3.03743e-16 3.5908e-16 0
-4.12502e-16 -4.90036e-16 0
5.58132e-16 6.66449e-16 0
-7.5233e-16 -9.03197e-16 0
1.0102e-15 1.21968e-15 0
-1.35115e-15 -1.64107e-15 0
1.79993e-15 2.19984e-15 0
-2.38795e-15 -2.93767e-15 0
3.15482e-15 3.90773e-15 0
-4.15011e-15 -5.1774e-15 0
5.43545e-15 6.83155e-15 0
-7.08691e-15 -8.9763e-15 0
9.19759e-15 1.17434e-14 0
-1.18806e-14 -1.52948e-14 0
1.52721e-14 1.98287e-14 0
-1.95345e-14 -2.5584e-14 0
2.48601e-14 3.28473e-14 0
-3.14735e-14 -4.19572e-14 0
3.96357e-14 5.33101e-14 0
-4.96457e-14 -6.73631e-14 0
6.18435e-14 8.4636e-14 0
-7.66118e-14 -1.0571e-13 0
9.43772e-14 1.31227e-13 0
-1.15613e-13 -1.61877e-13 0
1.40839e-13 1.98395e-13 0
-1.70632e-13 -2.41545e-13 0
2.05616e-13 2.92117e-13 0
-2.46501e-13 -3.50912e-13 0
2.9405e-13 4.18774e-13 0
-3.49181e-13 -4.96574e-13 0
4.12854e-13 5.85339e-13 0
-4.86351e-13 -6.86215e-13 0
5.7088e-13 8.00792e-13 0
-6.68394e-13 -9.30859e-13 0
7.80268e-13 1.07919e-12 0
-9.09763e-13 -1.24845e-12 0
1.05781e-12 1.44325e-12 0
-1.23053e-12 -1.66633e-12 0
1.42612e-12 1.92493e-12 0
-1.65792e-12 -2.21906e-12 0
1.91401e-12 2.56156e-12 0
-2.22789e-12 -2.94319e-12 0
2.5553e-12 3.39437e-12 0
-2.98893e-12 -3.87873e-12 0
3.38554e-12 4.47984e-12 0
-4.01378e-12 -5.07669e-12 0
4.43193e-12 5.90647e-12 0
-5.42972e-12 -6.58797e-12 0
5.67457e-12 7.812e-12 0
-7.49459e-12 -8.42164e-12 0
6.92457e-12 1.04501e-11 0
-1.08118e-11 -1.04443e-11 0
7.47158e-12 1.43823e-11 0
-1.6942e-11 -1.20693e-11 0
5.06769e-12 2.10126e-11 0
-3.0133e-11 -1.13668e-11 0
2.91392e-23 3.02163e-23 0
-7.99929e-24 9.26804e-23 0
-4.93242e-23 -3.20414e-23 0
8.15569e-23 1.20598e-22 0
-1.28085e-22 -1.76643e-22 0
1.59552e-22 1.9072e-22 0
-2.8048e-22 -3.47936e-22 0
4.17119e-22 4.9824e-22 0
-6.16439e-22 -7.4696e-22 0
9.78505e-22 1.10087e-21 0
-1.45731e-21 -1.7548e-21 0
2.19069e-21 2.50366e-21 0
-3.2884e-21 -3.81147e-21 0
4.95493e-21 5.65155e-21 0
-7.3384e-21 -8.43065e-21 0
1.09425e-20 1.24595e-20 0
-1.61872e-20 -1.84468e-20 0
2.38979e-20 2.72953e-20 0
-3.51573e-20 -4.0356e-20 0
5.16695e-20 5.93128e-20 0
-7.57341e-20 -8.70186e-20 0
1.10613e-19 1.27299e-19 0
-1.61181e-19 -1.857e-19 0
2.34125e-19 2.70148e-19 0
-3.38955e-19 -3.91928e-19 0
4.89356e-19 5.66933e-19 0
-7.04487e-19 -8.17832e-19 0
1.01111e-18 1.17628e-18 0
-1.44696e-18 -1.68705e-18 0
2.06441e-18 2.41259e-18 0
-2.9363e-18 -3.44006e-18 0
4.1636e-18 4.89061e-18 0
-5.88537e-18 -6.93211e-18 0
8.29297e-18 9.79632e-18 0
-1.16484e-17 -1.38019e-17 0
1.63085e-17 1.93858e-17 0
-2.27585e-17 -2.71445e-17 0
3.16546e-17 3.78892e-17 0
-4.38804e-17 -5.27196e-17 0
6.06211e-17 7.31194e-17 0
-8.34593e-17 -1.01083e-16 0
1.14498e-16 1.3928e-16 0
-1.56522e-16 -1.91269e-16 0
2.13192e-16 2.61771e-16 0
-2.89309e-16 -3.57022e-16 0
3.91127e-16 4.8522e-16 0
-5.26753e-16 -6.57088e-16 0
7.06638e-16 8.86583e-16 0
-9.44175e-16 -1.19177e-15 0
1.25643e-15 1.59592e-15 0
-1.665e-15 -2.12879e-15 0
2.19706e-15 2.82826e-15 0
-2.88655e-15 -3.74219e-15 0
3.77558e-15 4.93067e-15 0
-4.916e-15 -6.46857e-15 0
6.37117e-15 8.4485e-15 0
-8.21787e-15 -1.0984e-14 0
1.05484e-14 1.42133e-14 0
-1.34728e-14 -1.83025e-14 0
1.71211e-14 2.34501e-14 0
-2.16454e-14 -2.98899e-14 0
2.72222e-14 3.78947e-14 0
-3.40547e-14 -4.77782e-14 0
4.23743e-14 5.98971e-14 0
-5.24431e-14 -7.46512e-14 0
6.45554e-14 9.24818e-14 0
-7.90409e-14 -1.1387e-13 0
9.62663e-14 1.39332e-13 0
-1.16642e-13 -1.6942e-13 0
1.40625e-13 2.04717e-13 0
-1.68734e-13 -2.45845e-13 0
2.01549e-13 2.93479e-13 0
-2.3975e-13 -3.48363e-13 0
2.84097e-13 4.1137e-13 0
-3.35528e-13 -4.8352e-13 0
3.95054e-13 5.66118e-13 0
-4.64029e-13 -6.60705e-13 0
5.43754e-13 7.69336e-13 0
-6.3627e-13 -8.94245e-13 0
7.43045e-13 1.03851e-12 0
-8.67379e-13 -1.20481e-12 0
1.01023e-12 1.39745e-12 0
-1.17763e-12 -1.61863e-12 0
1.36773e-12 1.87483e-12 0
-1.59359e-12 -2.16574e-12 0
1.84341e-12 2.50417e-12 0
-2.15022e-12 -2.88187e-12 0
2.47057e-12 3.32995e-12 0
-2.89624e-12 -3.81376e-12 0
3.28631e-12 4.41595e-12 0
-3.90625e-12 -5.01753e-12 0
4.32035e-12 5.85189e-12 0
-5.30853e-12 -6.54474e-12 0
5.55547e-12 7.77691e-12 0
-7.36079e-12 -8.41112e-12 0
6.80893e-12 1.04493e-11 0
-1.06645e-11 -1.04941e-11 0
7.38442e-12 1.44324e-11 0
-1.677e-11 -1.22288e-11 0
5.06734e-12 2.11255e-11 0
-2.98892e-11 -1.17308e-11 0
-1.11228e-23 -1.14694e-22 0
5.34668e-23 1.84928e-25 0
-6.00211e-23 -1.18829e-22 0
8.04918e-23 1.37317e-22 0
-1.36696e-22 -2.22764e-22 0
2.70741e-22 4.04356e-22 0
-4.40899e-22 -5.68426e-22 0
6.80011e-22 8.25263e-22 0
-1.03674e-21 -1.24341e-21 0
1.56572e-21 1.86922e-21 0
-2.28578e-21 -2.72813e-21 0
3.43772e-21 4.00606e-21 0
-5.12844e-21 -6.04199e-21 0
7.65887e-21 8.91057e-21 0
-1.12582e-20 -1.32922e-20 0
1.66356e-20 1.9661e-20 0
-2.44859e-20 -2.89663e-20 0
3.59566e-20 4.26976e-20 0
-5.27274e-20 -6.25539e-20 0
7.70736e-20 9.15966e-20 0
-1.122e-19 -1.33588e-19 0
1.63029e-19 1.94387e-19 0
-2.36026e-19 -2.81936e-19 0
3.40593e-19 4.07975e-19 0
-4.90224e-19 -5.88516e-19 0
7.03525e-19 8.46441e-19 0
-1.00656e-18 -1.21394e-18 0
1.43585e-18 1.7359e-18 0
-2.04187e-18 -2.47503e-18 0
2.89454e-18 3.51826e-18 0
-4.09037e-18 -4.98636e-18 0
5.76184e-18 7.04551e-18 0
-8.09026e-18 -9.9244e-18 0
1.13226e-17 1.39365e-17 0
-1.57939e-17 -1.95091e-17 0
2.19572e-17 2.72233e-17 0
-3.04222e-17 -3.78655e-17 0
4.2005e-17 5.24965e-17 0
-5.77948e-17 -7.25403e-17 0
7.92371e-17 9.99007e-17 0
-1.08242e-16 -1.37112e-16 0
1.47319e-16 1.87532e-16 0
-1.99753e-16 -2.55588e-16 0
2.69817e-16 3.47092e-16 0
-3.63039e-16 -4.6963e-16 0
4.86532e-16 6.33059e-16 0
-6.49399e-16 -8.50107e-16 0
8.6321e-16 1.13712e-15 0
-1.14259e-15 -1.51499e-15 0
1.50589e-15 2.01017e-15 0
-1.97599e-15 -2.65605e-15 0
2.58123e-15 3.49441e-15 0
-3.35644e-15 -4.57712e-15 0
4.3441e-15 5.96817e-15 0
-5.59564e-15 -7.74576e-15 0
7.1728e-15 1.00047e-14 0
-9.14914e-15 -1.28588e-14 0
1.16116e-14 1.64433e-14 0
-1.46619e-14 -2.09176e-14 0
1.84184e-14 2.6467e-14 0
-2.30176e-14 -3.33047e-14 0
2.86159e-14 4.16733e-14 0
-3.53913e-14 -5.18455e-14 0
4.35452e-14 6.41243e-14 0
-5.33055e-14 -7.88432e-14 0
6.49288e-14 9.63662e-14 0
-7.87055e-14 -1.17089e-13 0
9.49641e-14 1.41443e-13 0
-1.1408e-13 -1.69899e-13 0
1.36484e-13 2.02988e-13 0
-1.62675e-13 -2.4131e-13 0
1.93229e-13 2.85573e-13 0
-2.28838e-13 -3.36616e-13 0
2.70284e-13 3.95472e-13 0
-3.1854e-13 -4.63376e-13 0
3.74656e-13 5.41868e-13 0
-4.40025e-13 -6.32696e-13 0
5.15977e-13 7.38034e-13 0
-6.0456e-13 -8.60098e-13 0
7.07228e-13 1.00177e-12 0
-8.27217e-13 -1.16545e-12 0
9.65434e-13 1.35507e-12 0
-1.12778e-12 -1.57268e-12 0
1.3124e-12 1.8248e-12 0
-1.5322e-12 -2.11159e-12 0
1.77566e-12 2.4463e-12 0
-2.07554e-12 -2.82148e-12 0
2.38921e-12 3.26812e-12 0
-2.80746e-12 -3.7523e-12 0
3.19143e-12 4.3554e-12 0
-3.80331e-12 -4.96086e-12 0
4.21334e-12 5.79897e-12 0
-5.19176e-12 -6.50255e-12 0
5.44053e-12 7.7422e-12 0
-7.23088e-12 -8.40002e-12 0
6.69666e-12 1.04472e-11 0
-1.05202e-11 -1.05419e-11 0
7.29938e-12 1.44805e-11 0
-1.65997e-11 -1.23854e-11 0
5.06738e-12 2.1236e-11 0
-2.96455e-11 -1.20904e-11 0
-5.32364e-23 -1.81986e-23 0
-4.91842e-23 1.79466e-22 0
1.24928e-23 -2.12256e-22 0
1.72844e-22 2.70468e-22 0
-2.62642e-22 -4.27523e-22 0
4.71324e-22 5.91101e-22 0
-7.62891e-22 -8.313e-22 0
1.04643e-21 1.31608e-21 0
-1.61116e-21 -1.92118e-21 0
2.35869e-21 2.84316e-21 0
-3.50374e-21 -4.24384e-21 0
5.24593e-21 6.35831e-21 0
-7.80163e-21 -9.37926e-21 0
1.13448e-20 1.39736e-20 0
-1.68242e-20 -2.05687e-20 0
2.47566e-20 3.01978e-20 0
-3.616e-20 -4.44164e-20 0
5.30355e-20 6.48449e-20 0
-7.71621e-20 -9.46717e-20 0
1.11846e-19 1.37746e-19 0
-1.6208e-19 -1.99786e-19 0
2.33794e-19 2.89032e-19 0
-3.36233e-19 -4.17024e-19 0
4.82579e-19 5.997e-19 0
-6.90288e-19 -8.59941e-19 0
9.8444e-19 1.22953e-18 0
-1.39963e-18 -1.75272e-18 0
1.98342e-18 2.49113e-18 0
-2.80176e-18 -3.52985e-18 0
3.94517e-18 4.98634e-18 0
-5.53692e-18 -7.02201e-18 0
7.74572e-18 9.85753e-18 0
-1.07992e-17 -1.37943e-17 0
1.50051e-17 1.92411e-17 0
-2.07778e-17 -2.6751e-17 0
2.86708e-17 3.70689e-17 0
-3.94214e-17 -5.11941e-17 0
5.4008e-17 7.04603e-17 0
-7.37202e-17 -9.66409e-17 0
1.00252e-16 1.32081e-16 0
-1.35815e-16 -1.7987e-16 0
1.83282e-16 2.44054e-16 0
-2.46364e-16 -3.29904e-16 0
3.29829e-16 4.44255e-16 0
-4.39764e-16 -5.95916e-16 0
5.83897e-16 7.96173e-16 0
-7.71972e-16 -1.0594e-15 0
1.0162e-15 1.40379e-15 0
-1.33179e-15 -1.85221e-15 0
1.73751e-15 2.43319e-15 0
-2.25645e-15 -3.18209e-15 0
2.91668e-15 4.14237e-15 0
-3.75219e-15 -5.36703e-15 0
4.80376e-15 6.92011e-15 0
-6.11997e-15 -8.87838e-15 0
7.75824e-15 1.13329e-14 0
-9.78597e-15 -1.43908e-14 0
1.22817e-14 1.81765e-14 0
-1.53363e-14 -2.28336e-14 0
1.90544e-14 2.85256e-14 0
-2.3556e-14 -3.54375e-14 0
2.89779e-14 4.37762e-14 0
-3.54763e-14 -5.37721e-14 0
4.32292e-14 6.56806e-14 0
-5.24399e-14 -7.97843e-14 0
6.33416e-14 9.63982e-14 0
-7.62033e-14 -1.15876e-13 0
9.13363e-14 1.38621e-13 0
-1.09105e-13 -1.65101e-13 0
1.29933e-13 1.95868e-13 0
-1.54324e-13 -2.3158e-13 0
1.82863e-13 2.73031e-13 0
-2.16251e-13 -3.21172e-13 0
2.55287e-13 3.77149e-13 0
-3.00951e-13 -4.42286e-13 0
3.54299e-13 5.18159e-13 0
-4.16709e-13 -6.06483e-13 0
4.89488e-13 7.09317e-13 0
-5.74635e-13 -8.28711e-13 0
6.73556e-13 9.67379e-13 0
-7.89415e-13 -1.12763e-12 0
9.23093e-13 1.31346e-12 0
-1.08042e-12 -1.52714e-12 0
1.25964e-12 1.77544e-12 0
-1.47358e-12 -2.05891e-12 0
1.71099e-12 2.39087e-12 0
-2.00435e-12 -2.76414e-12 0
2.31172e-12 3.20934e-12 0
-2.72279e-12 -3.69339e-12 0
3.10076e-12 4.29683e-12 0
-3.70456e-12 -4.90573e-12 0
4.11045e-12 5.74725e-12 0
-5.07901e-12 -6.46105e-12 0
5.32942e-12 7.70763e-12 0
-7.10455e-12 -8.38847e-12 0
6.58756e-12 1.04444e-11 0
-1.03786e-11 -1.05884e-11 0
7.21647e-12 1.45271e-11 0
-1.64311e-11 -1.25393e-11 0
5.0679e-12 2.13441e-11 0
-2.94019e-11 -1.24458e-11 0
7.22856e-24 -2.48666e-22 0
1.0503e-22 1.54516e-22 0
-1.25908e-22 -3.21285e-22 0
2.21418e-22 4.52887e-22 0
-4.91349e-22 -6.00615e-22 0
5.64917e-22 9.49567e-22 0
-1.03192e-21 -1.36782e-21 0
1.65014e-21 1.97038e-21 0
-2.33302e-21 -2.98338e-21 0
3.59772e-21 4.40335e-21 0
-5.41687e-21 -6.521e-21 0
7.74247e-21 9.73268e-21 0
-1.13108e-20 -1.43947e-20 0
1.66878e-20 2.11464e-20 0
-2.43795e-20 -3.10402e-20 0
3.57324e-20 4.53835e-20 0
-5.24391e-20 -6.60106e-20 0
7.57666e-20 9.61781e-20 0
-1.09846e-19 -1.39404e-19 0
1.58386e-19 2.01688e-19 0
-2.27508e-19 -2.91011e-19 0
3.26183e-19 4.18533e-19 0
-4.66598e-19 -6.00013e-19 0
6.65347e-19 8.57621e-19 0
-9.4579e-19 -1.22221e-18 0
1.33975e-18 1.73666e-18 0
-1.8919e-18 -2.46e-18 0
2.66272e-18 3.4739e-18 0
-3.73508e-18 -4.89041e-18 0
5.22224e-18 6.86245e-18 0
-7.27687e-18 -9.59871e-18 0
1.01046e-17 1.33824e-17 0
-1.39827e-17 -1.85957e-17 0
1.92811e-17 2.57529e-17 0
-2.64914e-17 -3.55431e-17 0
3.62649e-17 4.88852e-17 0
-4.946e-17 -6.69984e-17 0
6.72013e-17 9.14933e-17 0
-9.09558e-17 -1.24487e-16 0
1.22625e-16 1.68747e-16 0
-1.64662e-16 -2.27874e-16 0
2.20214e-16 3.06526e-16 0
-2.93291e-16 -4.10692e-16 0
3.88974e-16 5.4803e-16 0
-5.13664e-16 -7.2827e-16 0
6.75365e-16 9.63696e-16 0
-8.84029e-16 -1.26971e-15 0
1.15194e-15 1.66548e-15 0
-1.49416e-15 -2.17471e-15 0
1.92902e-15 2.82647e-15 0
-2.47868e-15 -3.65611e-15 0
3.16975e-15 4.70629e-15 0
-4.03393e-15 -6.02806e-15 0
5.10876e-15 7.68193e-15 0
-6.43837e-15 -9.73901e-15 0
8.07438e-15 1.22821e-14 0
-1.00768e-14 -1.54069e-14 0
1.2515e-14 1.92229e-14 0
-1.54691e-14 -2.38545e-14 0
1.90315e-14 2.94424e-14 0
-2.33081e-14 -3.61449e-14 0
2.84211e-14 4.414e-14 0
-3.45117e-14 -5.36283e-14 0
4.1743e-14 6.48372e-14 0
-5.03052e-14 -7.80267e-14 0
6.04202e-14 9.3498e-14 0
-7.23488e-14 -1.11604e-13 0
8.63971e-14 1.32761e-13 0
-1.02927e-13 -1.5747e-13 0
1.22364e-13 1.86326e-13 0
-1.45212e-13 -2.20039e-13 0
1.72057e-13 2.59454e-13 0
-2.03596e-13 -3.05554e-13 0
2.40619e-13 3.59487e-13 0
-2.8409e-13 -4.22543e-13 0
3.35037e-13 4.96223e-13 0
-3.948e-13 -5.82151e-13 0
4.64648e-13 6.82295e-13 0
-5.46532e-13 -7.98668e-13 0
6.4183e-13 9.34006e-13 0
-7.53667e-13 -1.09074e-12 0
8.82943e-13 1.273e-12 0
-1.03546e-12 -1.48324e-12 0
1.20955e-12 1.72831e-12 0
-1.41794e-12 -2.00887e-12 0
1.64961e-12 2.33814e-12 0
-1.93668e-12 -2.70928e-12 0
2.2379e-12 3.15269e-12 0
-2.64188e-12 -3.63635e-12 0
3.0139e-12 4.23994e-12 0
-3.60967e-12 -4.85203e-12 0
4.0114e-12 5.69663e-12 0
-4.97005e-12 -6.42022e-12 0
5.22192e-12 7.67341e-12 0
-6.98166e-12 -8.37682e-12 0
6.48155e-12 1.04411e-11 0
-1.02399e-11 -1.06337e-11 0
7.13566e-12 1.4572e-11 0
-1.62641e-11 -1.26905e-11 0
5.06891e-12 2.14498e-11 0
-2.91583e-11 -1.27968e-11 0
-1.14209e-22 -1.29001e-22 0
1.43689e-22 3.24455e-22 0
-9.98763e-23 -4.94576e-22 0
4.80415e-22 6.14529e-22 0
-4.96521e-22 -1.00339e-21 0
1.02377e-21 1.3969e-21 0
-1.73467e-21 -1.99933e-21 0
2.33461e-21 3.05753e-21 0
-3.58595e-21 -4.49441e-21 0
5.41589e-21 6.59279e-21 0
-7.45106e-21 -9.93643e-21 0
1.09637e-20 1.46648e-20 0
-1.63002e-20 -2.13543e-20 0
2.38559e-20 3.12454e-20 0
-3.48446e-20 -4.55289e-20 0
5.11706e-20 6.58827e-20 0
-7.31455e-20 -9.59938e-20 0
1.05774e-19 1.38653e-19 0
-1.5194e-19 -2.00034e-19 0
2.17292e-19 2.87815e-19 0
-3.10748e-19 -4.12488e-19 0
4.43525e-19 5.89179e-19 0
-6.30119e-19 -8.39442e-19 0
8.9251e-19 1.19224e-18 0
-1.2595e-18 -1.68829e-18 0
1.7717e-18 2.38317e-18 0
-2.48395e-18 -3.35334e-18 0
3.47051e-18 4.70339e-18 0
-4.83291e-18 -6.57525e-18 0
6.70676e-18 9.16169e-18 0
-9.27362e-18 -1.2723e-17 0
1.27778e-17 1.7608e-17 0
-1.75424e-17 -2.4284e-17 0
2.39941e-17 3.33735e-17 0
-3.2695e-17 -4.57009e-17 0
4.43815e-17 6.23532e-17 0
-6.00111e-17 -8.47571e-17 0
8.08246e-17 1.14774e-16 0
-1.08418e-16 -1.54822e-16 0
1.44838e-16 2.08021e-16 0
-1.92687e-16 -2.78375e-16 0
2.55259e-16 3.70994e-16 0
-3.36694e-16 -4.92354e-16 0
4.42166e-16 6.50615e-16 0
-5.78099e-16 -8.55982e-16 0
7.52415e-16 1.12114e-15 0
-9.74818e-16 -1.46171e-15 0
1.25712e-15 1.89686e-15 0
-1.6136e-15 -2.44983e-15 0
2.06139e-15 3.14865e-15 0
-2.62098e-15 -4.02681e-15 0
3.31661e-15 5.12404e-15 0
-4.17692e-15 -6.48705e-15 0
5.2355e-15 8.17037e-15 0
-6.53157e-15 -1.02372e-14 0
8.11082e-15 1.27601e-14 0
-1.00263e-14 -1.58226e-14 0
1.23397e-14 1.95193e-14 0
-1.51223e-14 -2.39586e-14 0
1.84572e-14 2.92635e-14 0
-2.24412e-14 -3.5575e-14 0
2.71873e-14 4.30552e-14 0
-3.28279e-14 -5.18919e-14 0
3.95188e-14 6.23053e-14 0
-4.74439e-14 -7.45548e-14 0
5.68203e-14 8.89489e-14 0
-6.79049e-14 -1.05855e-13 0
8.10006e-14 1.25712e-13 0
-9.64661e-14 -1.49039e-13 0
1.14721e-13 1.76452e-13 0
-1.36261e-13 -2.08666e-13 0
1.61659e-13 2.46517e-13 0
-1.91595e-13 -2.90956e-13 0
2.26836e-13 3.43083e-13 0
-2.68314e-13 -4.04133e-13 0
3.17028e-13 4.75558e-13 0
-3.74284e-13 -5.58957e-13 0
4.41323e-13 6.56311e-13 0
-5.20069e-13 -7.69685e-13 0
6.11891e-13 9.01889e-13 0
-7.19892e-13 -1.05544e-12 0
8.44995e-13 1.2345e-12 0
-9.92955e-13 -1.44159e-12 0
1.16217e-12 1.68352e-12 0
-1.36523e-12 -1.9611e-12 0
1.59135e-12 2.28753e-12 0
-1.87227e-12 -2.65639e-12 0
2.16746e-12 3.09794e-12 0
-2.56446e-12 -3.58111e-12 0
2.93062e-12 4.18468e-12 0
-3.51841e-12 -4.79972e-12 0
3.91598e-12 5.64713e-12 0
-4.86468e-12 -6.38021e-12 0
5.1179e-12 7.63967e-12 0
-6.86208e-12 -8.36514e-12 0
6.3785e-12 1.04374e-11 0
-1.01038e-11 -1.06777e-11 0
7.05686e-12 1.46155e-11 0
-1.60986e-11 -1.2839e-11 0
5.07039e-12 2.15531e-11 0
-2.89145e-11 -1.31438e-11 0
1.6424e-22 -6.11062e-22 0
1.46397e-22 3.89078e-22 0
-4.77514e-22 -6.55266e-22 0
6.05553e-22 9.60307e-22 0
-1.08467e-21 -1.39298e-21 0
1.81928e-21 1.96285e-21 0
-2.17922e-21 -3.13419e-21 0
3.53405e-21 4.5015e-21 0
-5.09181e-21 -6.68904e-21 0
6.94216e-21 1.00671e-20 0
-1.05325e-20 -1.46061e-20 0
1.57819e-20 2.11719e-20 0
-2.31204e-20 -3.08009e-20 0
3.35869e-20 4.47707e-20 0
-4.87882e-20 -6.47912e-20 0
6.9233e-20 9.41881e-20 0
-9.9592e-20 -1.35691e-19 0
1.43056e-19 1.94911e-19 0
-2.03686e-19 -2.79597e-19 0
2.91302e-19 3.98946e-19 0
-4.14471e-19 -5.67804e-19 0
5.86517e-19 8.06204e-19 0
-8.27151e-19 -1.14114e-18 0
1.16261e-18 1.61009e-18 0
-1.62858e-18 -2.26452e-18 0
2.27412e-18 3.17428e-18 0
-3.16401e-18 -4.4351e-18 0
4.38778e-18 6.17548e-18 0
-6.06274e-18 -8.56971e-18 0
8.34606e-18 1.18514e-17 0
-1.14482e-17 -1.63316e-17 0
1.56453e-17 2.24249e-17 0
-2.12986e-17 -3.06801e-17 0
2.88827e-17 4.18187e-17 0
-3.90151e-17 -5.67859e-17 0
5.24917e-17 7.68137e-17 0
-7.03375e-17 -1.03498e-16 0
9.38619e-17 1.38895e-16 0
-1.2473e-16 -1.85639e-16 0
1.65048e-16 2.47082e-16 0
-2.17454e-16 -3.27468e-16 0
2.85249e-16 4.32129e-16 0
-3.7252e-16 -5.67724e-16 0
4.84309e-16 7.42511e-16 0
-6.26791e-16 -9.66657e-16 0
8.07477e-16 1.25259e-15 0
-1.03546e-15 -1.6154e-15 0
1.32165e-15 2.07324e-15 0
-1.67913e-15 -2.64783e-15 0
2.12342e-15 3.36494e-15 0
-2.67289e-15 -4.25495e-15 0
3.34921e-15 5.3534e-15 0
-4.17779e-15 -6.70166e-15 0
5.18844e-15 8.34762e-15 0
-6.41601e-15 -1.03466e-14 0
7.90123e-15 1.27621e-14 0
-9.69178e-15 -1.56676e-14 0
1.18435e-14 1.91474e-14 0
-1.4422e-14 -2.32996e-14 0
1.75045e-14 2.8238e-14 0
-2.11822e-14 -3.40963e-14 0
2.55628e-14 4.10322e-14 0
-3.07741e-14 -4.92326e-14 0
3.69675e-14 5.89203e-14 0
-4.43228e-14 -7.03605e-14 0
5.30525e-14 8.38694e-14 0
-6.34082e-14 -9.98211e-14 0
7.56858e-14 1.18657e-13 0
-9.02347e-14 -1.40893e-13 0
1.07462e-13 1.67131e-13 0
-1.27848e-13 -1.98061e-13 0
1.51945e-13 2.34487e-13 0
-1.80413e-13 -2.77324e-13 0
2.1399e-13 3.27643e-13 0
-2.53587e-13 -3.86661e-13 0
3.00176e-13 4.55832e-13 0
-3.55041e-13 -5.36775e-13 0
4.19406e-13 6.31503e-13 0
-4.95175e-13 -7.42114e-13 0
5.83709e-13 8.71437e-13 0
-6.88081e-13 -1.022e-12 0
8.09219e-13 1.19798e-12 0
-9.52818e-13 -1.40192e-12 0
1.11734e-12 1.64068e-12 0
-1.31523e-12 -1.91525e-12 0
1.53594e-12 2.23883e-12 0
-1.81086e-12 -2.60541e-12 0
2.10017e-12 3.04504e-12 0
-2.49033e-12 -3.52761e-12 0
2.85072e-12 4.13101e-12 0
-3.4306e-12 -4.7488e-12 0
3.82401e-12 5.59879e-12 0
-4.76275e-12 -6.34101e-12 0
5.01718e-12 7.6064e-12 0
-6.74565e-12 -8.35339e-12 0
6.27829e-12 1.04331e-11 0
-9.97019e-12 -1.07205e-11 0
6.97996e-12 1.46574e-11 0
-1.59345e-11 -1.29851e-11 0
5.0723e-12 2.16542e-11 0
-2.86706e-11 -1.34867e-11 0
-5.7579e-22 -9.3779e-23 0
-2.165e-23 9.34041e-22 0
-1.0034e-21 -7.68244e-22 0
6.84199e-22 1.57691e-21 0
-2.12293e-21 -1.79413e-21 0
1.67887e-21 3.28881e-21 0
-3.4015e-21 -4.43194e-21 0
4.52684e-21 6.75824e-21 0
-6.29842e-21 -9.98069e-21 0
9.78247e-21 1.43804e-20 0
-1.52988e-20 -2.04813e-20 0
2.17764e-20 2.99323e-20 0
-3.16264e-20 -4.33533e-20 0
4.52426e-20 6.2766e-20 0
-6.43992e-20 -9.07159e-20 0
9.15015e-20 1.30713e-19 0
-1.3342e-19 -1.86034e-19 0
1.87433e-19 2.66751e-19 0
-2.69226e-19 -3.7832e-19 0
3.80915e-19 5.36823e-19 0
-5.36334e-19 -7.59621e-19 0
7.52128e-19 1.0717e-18 0
-1.05366e-18 -1.50599e-18 0
1.46875e-18 2.11029e-18 0
-2.04304e-18 -2.94588e-18 0
2.8296e-18 4.09941e-18 0
-3.90732e-18 -5.68386e-18 0
5.37423e-18 7.8538e-18 0
-7.36394e-18 -1.08137e-17 0
1.00542e-17 1.48343e-17 0
-1.36753e-17 -2.02746e-17 0
1.8525e-17 2.76073e-17 0
-2.49968e-17 -3.74478e-17 0
3.35964e-17 5.05973e-17 0
-4.49695e-17 -6.80935e-17 0
5.99431e-17 9.12697e-17 0
-7.9568e-17 -1.2183e-16 0
1.05169e-16 1.61942e-16 0
-1.3841e-16 -2.14338e-16 0
1.81361e-16 2.82454e-16 0
-2.36594e-16 -3.70568e-16 0
3.07273e-16 4.83978e-16 0
-3.97281e-16 -6.292e-16 0
5.11336e-16 8.14195e-16 0
-6.55155e-16 -1.04861e-15 0
8.35627e-16 1.34409e-15 0
-1.06099e-15 -1.71453e-15 0
1.3411e-15 2.17647e-15 0
-1.68763e-15 -2.74947e-15 0
2.11441e-15 3.45647e-15 0
-2.63779e-15 -4.32434e-15 0
3.27701e-15 5.3844e-15 0
-4.05476e-15 -6.67305e-15 0
4.99775e-15 8.23263e-15 0
-6.13747e-15 -1.01124e-14 0
7.51111e-15 1.23697e-14 0
-9.16264e-15 -1.50718e-14 0
1.11442e-14 1.82978e-14 0
-1.35176e-14 -2.21412e-14 0
1.63565e-14 2.67129e-14 0
-1.97485e-14 -3.21451e-14 0
2.37976e-14 3.85956e-14 0
-2.86277e-14 -4.62526e-14 0
3.4386e-14 5.53398e-14 0
-4.12466e-14 -6.61225e-14 0
4.94154e-14 7.89136e-14 0
-5.91355e-14 -9.40796e-14 0
7.06923e-14 1.12049e-13 0
-8.44221e-14 -1.33319e-13 0
1.00716e-13 1.58467e-13 0
-1.20039e-13 -1.88163e-13 0
1.42922e-13 2.23187e-13 0
-1.70006e-13 -2.64443e-13 0
2.0201e-13 3.12996e-13 0
-2.39824e-13 -3.70066e-13 0
2.84403e-13 4.37117e-13 0
-3.3701e-13 -5.15777e-13 0
3.98852e-13 6.0806e-13 0
-4.71807e-13 -7.16065e-13 0
5.57223e-13 8.42613e-13 0
-6.58135e-13 -9.90254e-13 0
7.75471e-13 1.16317e-12 0
-9.14868e-13 -1.364e-12 0
1.07485e-12 1.59963e-12 0
-1.26774e-12 -1.87122e-12 0
1.48321e-12 2.19197e-12 0
-1.75229e-12 -2.55625e-12 0
2.03585e-12 2.99391e-12 0
-2.41929e-12 -3.47578e-12 0
2.77401e-12 4.07889e-12 0
-3.34605e-12 -4.69923e-12 0
3.73533e-12 5.55158e-12 0
-4.66407e-12 -6.3026e-12 0
4.9196e-12 7.57357e-12 0
-6.63223e-12 -8.34158e-12 0
6.18078e-12 1.04285e-11 0
-9.83901e-12 -1.07622e-11 0
6.9049e-12 1.4698e-11 0
-1.57719e-11 -1.31287e-11 0
5.07462e-12 2.17532e-11 0
-2.84267e-11 -1.38258e-11 0
4.97301e-22 -1.69905e-21 0
1.58782e-21 2.04999e-22 0
-5.63763e-24 -1.91842e-21 0
2.15426e-21 1.60071e-21 0
-2.68925e-22 -3.77733e-21 0
3.14977e-21 4.28958e-21 0
-3.26702e-21 -6.94283e-21 0
5.64494e-21 9.71825e-21 0
-9.60321e-21 -1.36181e-20 0
1.49842e-20 1.92825e-20 0
-1.96431e-20 -2.88148e-20 0
2.87673e-20 4.1422e-20 0
-4.00976e-20 -6.01994e-20 0
5.81255e-20 8.61818e-20 0
-8.2959e-20 -1.23468e-19 0
1.23433e-19 1.73845e-19 0
-1.70034e-19 -2.49563e-19 0
2.47176e-19 3.50916e-19 0
-3.44111e-19 -4.97845e-19 0
4.81249e-19 7.02207e-19 0
-6.71101e-19 -9.87228e-19 0
9.37289e-19 1.38117e-18 0
-1.29921e-18 -1.9281e-18 0
1.80079e-18 2.67952e-18 0
-2.48162e-18 -3.71322e-18 0
3.41211e-18 5.12523e-18 0
-4.66988e-18 -7.05048e-18 0
6.36877e-18 9.66256e-18 0
-8.65449e-18 -1.3192e-17 0
1.17127e-17 1.79428e-17 0
-1.57849e-17 -2.4312e-17 0
2.11924e-17 3.28102e-17 0
-2.83373e-17 -4.4101e-17 0
3.77308e-17 5.9037e-17 0
-5.00274e-17 -7.87038e-17 0
6.60527e-17 1.04478e-16 0
-8.68353e-17 -1.38098e-16 0
1.13666e-16 1.81739e-16 0
-1.4813e-16 -2.38114e-16 0
1.92201e-16 3.10571e-16 0
-2.48279e-16 -4.03232e-16 0
3.19304e-16 5.21123e-16 0
-4.08824e-16 -6.70349e-16 0
5.21136e-16 8.58265e-16 0
-6.61396e-16 -1.09368e-15 0
8.35771e-16 1.38711e-15 0
-1.05163e-15 -1.75099e-15 0
1.31772e-15 2.20003e-15 0
-1.64445e-15 -2.75153e-15 0
2.04415e-15 3.42578e-15 0
-2.53144e-15 -4.24658e-15 0
3.12368e-15 5.24186e-15 0
-3.84145e-15 -6.44439e-15 0
4.70927e-15 7.89279e-15 0
-5.75627e-15 -9.63267e-15 0
7.01721e-15 1.17181e-14 0
-8.53358e-15 -1.42136e-14 0
1.03549e-14 1.71959e-14 0
-1.25405e-14 -2.07569e-14 0
1.51608e-14 2.50065e-14 0
-1.83003e-14 -3.00757e-14 0
2.20591e-14 3.61209e-14 0
-2.65566e-14 -4.33273e-14 0
3.19341e-14 5.19137e-14 0
-3.83588e-14 -6.21375e-14 0
4.60281e-14 7.43007e-14 0
-5.5175e-14 -8.87557e-14 0
6.60732e-14 1.05915e-13 0
-7.90458e-14 -1.26259e-13 0
9.447e-14 1.50351e-13 0
-1.12794e-13 -1.78849e-13 0
1.34535e-13 2.12525e-13 0
-1.60315e-13 -2.52279e-13 0
1.90838e-13 2.99172e-13 0
-2.26975e-13 -3.54424e-13 0
2.69661e-13 4.1949e-13 0
-3.20139e-13 -4.95989e-13 0
3.79594e-13 5.85925e-13 0
-4.49876e-13 -6.91397e-13 0
5.32315e-13 8.15231e-13 0
-6.29909e-13 -9.60008e-13 0
7.43593e-13 1.12993e-12 0
-8.78944e-13 -1.32772e-12 0
1.03455e-12 1.56029e-12 0
-1.22259e-12 -1.82895e-12 0
1.43298e-12 2.14688e-12 0
-1.69638e-12 -2.50884e-12 0
1.97434e-12 2.94448e-12 0
-2.35118e-12 -3.42557e-12 0
2.70031e-12 4.02825e-12 0
-3.26459e-12 -4.65096e-12 0
3.64975e-12 5.50543e-12 0
-4.56849e-12 -6.26493e-12 0
4.82502e-12 7.54116e-12 0
-6.52167e-12 -8.32974e-12 0
6.08584e-12 1.04234e-11 0
-9.71016e-12 -1.08028e-11 0
6.83158e-12 1.47372e-11 0
-1.56107e-11 -1.32699e-11 0
5.07734e-12 2.18501e-11 0
-2.81826e-11 -1.41611e-11 0
5.18798e-22 -5.79265e-22 0
3.53701e-22 1.8576e-21 0
-1.27928e-21 -1.79282e-21 0
1.83953e-21 2.94137e-21 0
-2.58946e-21 -4.23222e-21 0
3.92055e-21 6.19354e-21 0
-5.825e-21 -8.92703e-21 0
8.61514e-21 1.29256e-20 0
-1.28866e-20 -1.85101e-20 0
1.82056e-20 2.69087e-20 0
-2.6217e-20 -3.87192e-20 0
3.78035e-20 5.54539e-20 0
-5.36532e-20 -7.94726e-20 0
7.63128e-20 1.13349e-19 0
-1.08346e-19 -1.61047e-19 0
1.5268e-19 2.28422e-19 0
-2.15091e-19 -3.22578e-19 0
3.01821e-19 4.54199e-19 0
-4.21451e-19 -6.376e-19 0
5.87654e-19 8.91582e-19 0
-8.1568e-19 -1.24269e-18 0
1.12808e-18 1.72614e-18 0
-1.55492e-18 -2.38892e-18 0
2.13437e-18 3.29482e-18 0
-2.91915e-18 -4.52738e-18 0
3.9778e-18 6.19778e-18 0
-5.39843e-18 -8.4528e-18 0
7.29803e-18 1.14839e-17 0
-9.82706e-18 -1.55409e-17 0
1.31785e-17 2.0948e-17 0
-1.76012e-17 -2.81221e-17 0
2.3411e-17 3.75981e-17 0
-3.10077e-17 -5.0058e-17 0
4.08968e-17 6.63645e-17 0
-5.37091e-17 -8.76051e-17 0
7.0233e-17 1.1514e-16 0
-9.14452e-17 -1.5066e-16 0
1.18548e-16 1.96258e-16 0
-1.53018e-16 -2.54503e-16 0
1.96657e-16 3.28533e-16 0
-2.51653e-16 -4.22158e-16 0
3.20654e-16 5.39978e-16 0
-4.0685e-16 -6.87516e-16 0
5.14075e-16 8.71377e-16 0
-6.46923e-16 -1.09942e-15 0
8.10887e-16 1.38097e-15 0
-1.01253e-15 -1.72708e-15 0
1.25967e-15 2.15079e-15 0
-1.56167e-15 -2.66753e-15 0
1.92969e-15 3.29555e-15 0
-2.37705e-15 -4.05647e-15 0
2.91972e-15 4.97596e-15 0
-3.5768e-15 -6.08462e-15 0
4.3712e-15 7.41896e-15 0
-5.3304e-15 -9.0227e-15 0
6.48733e-15 1.09482e-14 0
-7.8815e-15 -1.32584e-14 0
9.56022e-15 1.60286e-14 0
-1.15801e-14 -1.93487e-14 0
1.40087e-14 2.33263e-14 0
-1.69266e-14 -2.8089e-14 0
2.04295e-14 3.37881e-14 0
-2.46314e-14 -4.06021e-14 0
2.96671e-14 4.87413e-14 0
-3.56962e-14 -5.84527e-14 0
4.29074e-14 7.00266e-14 0
-5.15239e-14 -8.3804e-14 0
6.18087e-14 1.00186e-13 0
-7.4073e-14 -1.19643e-13 0
8.86818e-14 1.42729e-13 0
-1.06069e-13 -1.70096e-13 0
1.26739e-13 2.02508e-13 0
-1.51297e-13 -2.40857e-13 0
1.80429e-13 2.86193e-13 0
-2.14988e-13 -3.39722e-13 0
2.55889e-13 4.02888e-13 0
-3.04349e-13 -4.77303e-13 0
3.61535e-13 5.64963e-13 0
-4.29266e-13 -6.67978e-13 0
5.08858e-13 7.89179e-13 0
-6.03275e-13 -9.31178e-13 0
7.13452e-13 1.0982e-12 0
-8.44909e-13 -1.29302e-12 0
9.96288e-13 1.52257e-12 0
-1.17965e-12 -1.78833e-12 0
1.38511e-12 2.10346e-12 0
-1.64297e-12 -2.46309e-12 0
1.91545e-12 2.89667e-12 0
-2.28582e-12 -3.37689e-12 0
2.62947e-12 3.97904e-12 0
-3.18605e-12 -4.60392e-12 0
3.56711e-12 5.4603e-12 0
-4.47586e-12 -6.22799e-12 0
4.73329e-12 7.50919e-12 0
-6.41386e-12 -8.31786e-12 0
5.99337e-12 1.0418e-11 0
-9.58352e-12 -1.08424e-11 0
6.75996e-12 1.47752e-11 0
-1.54507e-11 -1.34089e-11 0
5.08043e-12 2.19451e-11 0
-2.79385e-11 -1.44927e-11 0
-6.51599e-22 -1.98971e-21 0
9.93753e-22 1.17504e-21 0
-9.64e-22 -1.84423e-21 0
2.08896e-21 5.01554e-21 0
-3.45642e-21 -6.35096e-21 0
5.35744e-21 8.83106e-21 0
-8.13646e-21 -1.30953e-20 0
1.15889e-20 1.62902e-20 0
-1.61733e-20 -2.48932e-20 0
2.34163e-20 3.51433e-20 0
-3.36255e-20 -5.02494e-20 0
4.74902e-20 7.30015e-20 0
-6.73874e-20 -1.03287e-19 0
9.50564e-20 1.45514e-19 0
-1.33216e-19 -2.0567e-19 0
1.8695e-19 2.87821e-19 0
-2.61338e-19 -4.05573e-19 0
3.6323e-19 5.65267e-19 0
-5.05032e-19 -7.89623e-19 0
6.97381e-19 1.0941e-18 0
-9.60057e-19 -1.51451e-18 0
1.31691e-18 2.08468e-18 0
-1.79882e-18 -2.86289e-18 0
2.44859e-18 3.91543e-18 0
-3.32032e-18 -5.33378e-18 0
4.48314e-18 7.23721e-18 0
-6.03045e-18 -9.7838e-18 0
8.07865e-18 1.31704e-17 0
-1.07778e-17 -1.76592e-17 0
1.43202e-17 2.3579e-17 0
-1.89474e-17 -3.13528e-17 0
2.4964e-17 4.15126e-17 0
-3.27538e-17 -5.47291e-17 0
4.27912e-17 7.18412e-17 0
-5.56684e-17 -9.38903e-17 0
7.21138e-17 1.22163e-16 0
-9.30215e-17 -1.58244e-16 0
1.19486e-16 2.04066e-16 0
-1.5284e-16 -2.6198e-16 0
1.947e-16 3.34831e-16 0
-2.47021e-16 -4.2605e-16 0
3.12164e-16 5.39742e-16 0
-3.92968e-16 -6.80832e-16 0
4.92848e-16 8.55177e-16 0
-6.15906e-16 -1.06977e-15 0
7.67068e-16 1.33294e-15 0
-9.5225e-16 -1.65459e-15 0
1.17856e-15 2.04654e-15 0
-1.45455e-15 -2.5229e-15 0
1.7905e-15 3.10057e-15 0
-2.19881e-15 -3.79979e-15 0
2.69437e-15 4.6449e-15 0
-3.29518e-15 -5.66515e-15 0
4.02285e-15 6.89577e-15 0
-4.90344e-15 -8.37911e-15 0
5.96822e-15 1.01661e-14 0
-7.25474e-15 -1.23176e-14 0
8.80797e-15 1.49066e-14 0
-1.06817e-14 -1.80199e-14 0
1.29402e-14 2.17609e-14 0
-1.56598e-14 -2.62518e-14 0
1.89318e-14 3.16375e-14 0
-2.28643e-14 -3.80889e-14 0
2.75859e-14 4.5808e-14 0
-3.3249e-14 -5.50334e-14 0
4.00345e-14 6.60468e-14 0
-4.81567e-14 -7.91807e-14 0
5.78688e-14 9.48281e-14 0
-6.94717e-14 -1.13452e-13 0
8.33185e-14 1.35598e-13 0
-9.98307e-14 -1.61906e-13 0
1.19497e-13 1.9313e-13 0
-1.42908e-13 -2.30149e-13 0
1.70732e-13 2.74e-13 0
-2.03801e-13 -3.25877e-13 0
2.4301e-13 3.87214e-13 0
-2.89554e-13 -4.59619e-13 0
3.44579e-13 5.45085e-13 0
-4.09877e-13 -6.45728e-13 0
4.86748e-13 7.64385e-13 0
-5.7812e-13 -9.03689e-13 0
6.84932e-13 1.06788e-12 0
-8.1264e-13 -1.25979e-12 0
9.59944e-13 1.48637e-12 0
-1.13877e-12 -1.74927e-12 0
1.33945e-12 2.06162e-12 0
-1.59191e-12 -2.41892e-12 0
1.85906e-12 2.85041e-12 0
-2.22306e-12 -3.32968e-12 0
2.56133e-12 3.93117e-12 0
-3.11028e-12 -4.55807e-12 0
3.48728e-12 5.41617e-12 0
-4.38603e-12 -6.19176e-12 0
4.64428e-12 7.47764e-12 0
-6.30867e-12 -8.30598e-12 0
5.90327e-12 1.04122e-11 0
-9.45903e-12 -1.08809e-11 0
6.68996e-12 1.48119e-11 0
-1.5292e-11 -1.35457e-11 0
5.08389e-12 2.20381e-11 0
-2.76942e-11 -1.48207e-11 0
2.51019e-23 -1.77603e-21 0
9.93965e-22 2.55627e-21 0
-1.79951e-21 -4.70767e-21 0
2.74469e-21 5.60972e-21 0
-4.73719e-21 -7.73175e-21 0
6.88346e-21 1.10864e-20 0
-9.59593e-21 -1.51357e-20 0
1.4414e-20 2.24924e-20 0
-2.00628e-20 -3.21267e-20 0
2.94e-20 4.5506e-20 0
-4.16381e-20 -6.49842e-20 0
5.80448e-20 9.15769e-20 0
-8.18734e-20 -1.28733e-19 0
1.14476e-19 1.812e-19 0
-1.59348e-19 -2.53802e-19 0
2.2216e-19 3.55096e-19 0
-3.0768e-19 -4.93398e-19 0
4.24934e-19 6.85031e-19 0
-5.8508e-19 -9.44822e-19 0
8.00808e-19 1.30119e-18 0
-1.09336e-18 -1.78327e-18 0
1.48672e-18 2.43641e-18 0
-2.013e-18 -3.3154e-18 0
2.71575e-18 4.49295e-18 0
-3.64851e-18 -6.06534e-18 0
4.88205e-18 8.156e-18 0
-6.5066e-18 -1.09208e-17 0
8.63616e-18 1.45636e-17 0
-1.14148e-17 -1.93405e-17 0
1.5026e-17 2.55757e-17 0
-1.96965e-17 -3.36772e-17 0
2.57117e-17 4.41545e-17 0
-3.34246e-17 -5.76407e-17 0
4.32707e-17 7.49187e-17 0
-5.57875e-17 -9.69509e-17 0
7.16321e-17 1.24917e-16 0
-9.16068e-17 -1.60251e-16 0
1.1669e-16 2.04694e-16 0
-1.48069e-16 -2.60351e-16 0
1.87182e-16 3.2976e-16 0
-2.35769e-16 -4.15966e-16 0
2.95934e-16 5.22629e-16 0
-3.70219e-16 -6.54133e-16 0
4.61696e-16 8.15742e-16 0
-5.74073e-16 -1.01376e-15 0
7.11834e-16 1.25578e-15 0
-8.80403e-16 -1.5509e-15 0
1.08634e-15 1.91012e-15 0
-1.33758e-15 -2.34668e-15 0
1.64373e-15 2.87658e-15 0
-2.01641e-15 -3.51915e-15 0
2.46965e-15 4.29772e-15 0
-3.02042e-15 -5.24046e-15 0
3.68915e-15 6.38127e-15 0
-4.50045e-15 -7.76089e-15 0
5.48391e-15 9.42818e-15 0
-6.67503e-15 -1.14415e-14 0
8.11633e-15 1.38705e-14 0
-9.85869e-15 -1.67981e-14 0
1.19629e-14 2.03228e-14 0
-1.45016e-14 -2.45616e-14 0
1.75611e-14 2.96533e-14 0
-2.12448e-14 -3.57626e-14 0
2.56751e-14 4.30851e-14 0
-3.09983e-14 -5.18525e-14 0
3.73878e-14 6.23396e-14 0
-4.50499e-14 -7.48715e-14 0
5.42288e-14 8.98329e-14 0
-6.52151e-14 -1.07677e-13 0
7.83505e-14 1.28939e-13 0
-9.40434e-14 -1.54247e-13 0
1.12768e-13 1.84343e-13 0
-1.35099e-13 -2.20092e-13 0
1.61688e-13 2.62521e-13 0
-1.93347e-13 -3.12814e-13 0
2.30952e-13 3.72397e-13 0
-2.75675e-13 -4.42871e-13 0
3.28643e-13 5.26227e-13 0
-3.9162e-13 -6.24582e-13 0
4.6589e-13 7.40773e-13 0
-5.54344e-13 -8.77457e-13 0
6.57922e-13 1.03888e-12 0
-7.82019e-13 -1.22795e-12 0
9.25389e-13 1.45163e-12 0
-1.09982e-12 -1.7117e-12 0
1.29586e-12 2.02129e-12 0
-1.54306e-12 -2.37624e-12 0
1.805e-12 2.80561e-12 0
-2.16277e-12 -3.28387e-12 0
2.49574e-12 3.88462e-12 0
-3.03715e-12 -4.51337e-12 0
3.41011e-12 5.37301e-12 0
-4.29887e-12 -6.15623e-12 0
4.55787e-12 7.44652e-12 0
-6.20598e-12 -8.2941e-12 0
5.81544e-12 1.04061e-11 0
-9.33659e-12 -1.09186e-11 0
6.62151e-12 1.48475e-11 0
-1.51345e-11 -1.36804e-11 0
5.0877e-12 2.21293e-11 0
-2.74498e-11 -1.51453e-11 0
-5.67911e-22 -3.26275e-21 0
1.02817e-21 3.85034e-21 0
-2.19597e-21 -5.08273e-21 0
3.92988e-21 6.75617e-21 0
-5.8843e-21 -9.77621e-21 0
7.8252e-21 1.39895e-20 0
-1.2497e-20 -1.98283e-20 0
1.73161e-20 2.86267e-20 0
-2.55526e-20 -3.98966e-20 0
3.51912e-20 5.69102e-20 0
-4.89303e-20 -8.0025e-20 0
6.90112e-20 1.12114e-19 0
-9.58987e-20 -1.57181e-19 0
1.33208e-19 2.19214e-19 0
-1.85114e-19 -3.0456e-19 0
2.55447e-19 4.21701e-19 0
-3.51213e-19 -5.81594e-19 0
4.81025e-19 7.99208e-19 0
-6.54782e-19 -1.09479e-18 0
8.89832e-19 1.49338e-18 0
-1.20365e-18 -2.02952e-18 0
1.62135e-18 2.74761e-18 0
-2.17642e-18 -3.70383e-18 0
2.90884e-18 4.97426e-18 0
-3.87264e-18 -6.65259e-18 0
5.13537e-18 8.86017e-18 0
-6.78162e-18 -1.17516e-17 0
8.91825e-18 1.5522e-17 0
-1.16816e-17 -2.04148e-17 0
1.52375e-17 2.67369e-17 0
-1.97961e-17 -3.48675e-17 0
2.56153e-17 4.52767e-17 0
-3.30124e-17 -5.85438e-17 0
4.23802e-17 7.5378e-17 0
-5.41961e-17 -9.66469e-17 0
6.9046e-17 1.23405e-16 0
-8.76448e-17 -1.56933e-16 0
1.1086e-16 1.98781e-16 0
-1.3975e-16 -2.50821e-16 0
1.75599e-16 3.15314e-16 0
-2.19967e-16 -3.94991e-16 0
2.74752e-16 4.93145e-16 0
-3.42258e-16 -6.13757e-16 0
4.25284e-16 7.61642e-16 0
-5.27237e-16 -9.42624e-16 0
6.52254e-16 1.16377e-15 0
-8.05368e-16 -1.43364e-15 0
9.92693e-16 1.76261e-15 0
-1.22165e-15 -2.16331e-15 0
1.50125e-15 2.65097e-15 0
-1.8424e-15 -3.24408e-15 0
2.2583e-15 3.96495e-15 0
-2.76491e-15 -4.84046e-15 0
3.38146e-15 5.90293e-15 0
-4.1311e-15 -7.19115e-15 0
5.04171e-15 8.75154e-15 0
-6.14674e-15 -1.06396e-14 0
7.48633e-15 1.29216e-14 0
-9.10858e-15 -1.56767e-14 0
1.10711e-14 1.8999e-14 0
-1.34427e-14 -2.30011e-14 0
1.6306e-14 2.78168e-14 0
-1.97591e-14 -3.36057e-14 0
2.39196e-14 4.05576e-14 0
-2.89274e-14 -4.88979e-14 0
3.49492e-14 5.88942e-14 0
-4.21836e-14 -7.08636e-14 0
5.08659e-14 8.51814e-14 0
-6.12765e-14 -1.02291e-13 0
7.3746e-14 1.22716e-13 0
-8.86699e-14 -1.47073e-13 0
1.06509e-13 1.76094e-13 0
-1.27822e-13 -2.10631e-13 0
1.53243e-13 2.51702e-13 0
-1.83567e-13 -3.00481e-13 0
2.1965e-13 3.58382e-13 0
-2.62644e-13 -4.27002e-13 0
3.13652e-13 5.08324e-13 0
-3.74414e-13 -6.04466e-13 0
4.46196e-13 7.18268e-13 0
-5.31852e-13 -8.52407e-13 0
6.32323e-13 1.01114e-12 0
-7.5294e-13 -1.19743e-12 0
8.92511e-13 1.41825e-12 0
-1.06269e-12 -1.67554e-12 0
1.25422e-12 1.98239e-12 0
-1.4963e-12 -2.335e-12 0
1.75315e-12 2.76221e-12 0
-2.1048e-12 -3.2394e-12 0
2.43257e-12 3.83931e-12 0
-2.96652e-12 -4.46978e-12 0
3.33548e-12 5.33078e-12 0
-4.21426e-12 -6.12137e-12 0
4.47394e-12 7.41582e-12 0
-6.1057e-12 -8.28223e-12 0
5.72978e-12 1.03997e-11 0
-9.21612e-12 -1.09553e-11 0
6.55457e-12 1.48821e-11 0
-1.49782e-11 -1.38131e-11 0
5.09184e-12 2.22188e-11 0
-2.72054e-11 -1.54664e-11 0
-4.68564e-22 -3.74425e-21 0
1.60453e-21 4.30175e-21 0
-2.96118e-21 -6.1783e-21 0
4.88917e-21 8.57495e-21 0
-6.61217e-21 -1.2446e-20 0
1.03672e-20 1.74264e-20 0
-1.4807e-20 -2.47875e-20 0
2.07369e-20 3.47161e-20 0
-2.92829e-20 -4.88732e-20 0
4.09155e-20 6.83346e-20 0
-5.69509e-20 -9.56554e-20 0
7.95131e-20 1.33259e-19 0
-1.09608e-19 -1.85115e-19 0
1.51288e-19 2.55901e-19 0
-2.07908e-19 -3.52603e-19 0
2.84019e-19 4.83949e-19 0
-3.87035e-19 -6.61879e-19 0
5.25099e-19 9.01688e-19 0
-7.09192e-19 -1.22412e-18 0
9.54787e-19 1.65466e-18 0
-1.27976e-18 -2.22828e-18 0
1.70876e-18 2.98833e-18 0
-2.27283e-18 -3.99174e-18 0
3.01104e-18 5.31005e-18 0
-3.97268e-18 -7.03461e-18 0
5.22075e-18 9.28066e-18 0
-6.83294e-18 -1.21936e-17 0
8.90789e-18 1.59535e-17 0
-1.15674e-17 -2.07861e-17 0
1.49621e-17 2.69704e-17 0
-1.92795e-17 -3.48501e-17 0
2.47493e-17 4.48489e-17 0
-3.1655e-17 -5.74845e-17 0
4.03439e-17 7.339e-17 0
-5.12411e-17 -9.33372e-17 0
6.48672e-17 1.18265e-16 0
-8.18589e-17 -1.49313e-16 0
1.02993e-16 1.87869e-16 0
-1.2922e-16 -2.35614e-16 0
1.617e-16 2.94594e-16 0
-2.01849e-16 -3.67296e-16 0
2.51402e-16 4.56747e-16 0
-3.12472e-16 -5.6663e-16 0
3.87645e-16 7.01435e-16 0
-4.80075e-16 -8.6663e-16 0
5.9361e-16 1.06888e-15 0
-7.32942e-16 -1.31629e-15 0
9.03782e-16 1.61873e-15 0
-1.11307e-15 -1.98815e-15 0
1.36925e-15 2.43906e-15 0
-1.68252e-15 -2.98898e-15 0
2.06527e-15 3.65905e-15 0
-2.53244e-15 -4.47472e-15 0
3.10208e-15 5.46662e-15 0
-3.79596e-15 -6.67148e-15 0
4.64029e-15 8.13337e-15 0
-5.6666e-15 -9.90513e-15 0
6.91283e-15 1.205e-14 0
-8.42453e-15 -1.46439e-14 0
1.02564e-14 1.77773e-14 0
-1.24739e-14 -2.15588e-14 0
1.51556e-14 2.61177e-14 0
-1.83956e-14 -3.16086e-14 0
2.23062e-14 3.82155e-14 0
-2.70217e-14 -4.61572e-14 0
3.27019e-14 5.5694e-14 0
-3.9538e-14 -6.71343e-14 0
4.77565e-14 8.08446e-14 0
-5.76284e-14 -9.72581e-14 0
6.94732e-14 1.16889e-13 0
-8.36744e-14 -1.40343e-13 0
1.00679e-13 1.68341e-13 0
-1.21031e-13 -2.01724e-13 0
1.45349e-13 2.41499e-13 0
-1.74409e-13 -2.88828e-13 0
2.09049e-13 3.45116e-13 0
-2.50397e-13 -4.11952e-13 0
2.99539e-13 4.91312e-13 0
-3.58184e-13 -5.85316e-13 0
4.27585e-13 6.96803e-13 0
-5.10557e-13 -8.28469e-13 0
6.0804e-13 9.84577e-13 0
-7.25303e-13 -1.16815e-12 0
8.61204e-13 1.38617e-12 0
-1.02726e-12 -1.64071e-12 0
1.21442e-12 1.94484e-12 0
-1.4515e-12 -2.29511e-12 0
1.70339e-12 2.72016e-12 0
-2.04903e-12 -3.19622e-12 0
2.3717e-12 3.7952e-12 0
-2.89826e-12 -4.42725e-12 0
3.26326e-12 5.28945e-12 0
-4.13208e-12 -6.08717e-12 0
4.39239e-12 7.38553e-12 0
-6.00772e-12 -8.27039e-12 0
5.64621e-12 1.03931e-11 0
-9.09756e-12 -1.09912e-11 0
6.48908e-12 1.49155e-11 0
-1.4823e-11 -1.39437e-11 0
5.09629e-12 2.23066e-11 0
-2.69607e-11 -1.57842e-11 0
-4.76561e-22 -4.36445e-21 0
2.28198e-21 5.20636e-21 0
-3.86044e-21 -7.6975e-21 0
5.22404e-21 1.08401e-20 0
-8.884e-21 -1.48834e-20 0
1.18099e-20 2.12004e-20 0
-1.64556e-20 -2.95305e-20 0
2.41333e-20 4.11229e-20 0
-3.28684e-20 -5.77119e-20 0
4.61551e-20 8.01418e-20 0
-6.4604e-20 -1.10668e-19 0
8.80013e-20 1.53368e-19 0
-1.21671e-19 -2.10366e-19 0
1.66192e-19 2.8843e-19 0
-2.25058e-19 -3.94227e-19 0
3.05804e-19 5.36107e-19 0
-4.1224e-19 -7.27101e-19 0
5.53595e-19 9.82002e-19 0
-7.42389e-19 -1.32019e-18 0
9.8937e-19 1.76867e-18 0
-1.31499e-18 -2.35967e-18 0
1.74139e-18 3.13489e-18 0
-2.29511e-18 -4.14883e-18 0
3.01438e-18 5.46763e-18 0
-3.94333e-18 -7.17651e-18 0
5.13725e-18 9.3819e-18 0
-6.66927e-18 -1.22142e-17 0
8.62501e-18 1.58385e-17 0
-1.11129e-17 -2.04566e-17 0
1.42696e-17 2.63175e-17 0
-1.82578e-17 -3.3729e-17 0
2.32833e-17 4.30668e-17 0
-2.95982e-17 -5.47912e-17 0
3.75085e-17 6.94673e-17 0
-4.73967e-17 -8.77823e-17 0
5.97279e-17 1.10579e-16 0
-7.50743e-17 -1.38886e-16 0
9.41407e-17 1.7396e-16 0
-1.1779e-16 -2.17342e-16 0
1.47081e-16 2.70913e-16 0
-1.8332e-16 -3.36977e-16 0
2.28097e-16 4.18358e-16 0
-2.83373e-16 -5.18507e-16 0
3.51544e-16 6.41646e-16 0
-4.35539e-16 -7.92933e-16 0
5.38943e-16 9.78657e-16 0
-6.66125e-16 -1.20648e-15 0
8.22409e-16 1.48571e-15 0
-1.01427e-15 -1.82763e-15 0
1.24959e-15 2.24592e-15 0
-1.53789e-15 -2.7571e-15 0
1.89077e-15 3.38113e-15 0
-2.32222e-15 -4.14205e-15 0
2.84917e-15 5.06886e-15 0
-3.49209e-15 -6.19645e-15 0
4.27568e-15 7.56681e-15 0
-5.22973e-15 -9.23041e-15 0
6.39012e-15 1.12479e-14 0
-7.80006e-15 -1.36922e-14 0
9.51151e-15 1.66504e-14 0
-1.15869e-14 -2.02272e-14 0
1.41011e-14 2.45476e-14 0
-1.71439e-14 -2.97609e-14 0
2.08229e-14 3.60453e-14 0
-2.52667e-14 -4.36132e-14 0
3.06289e-14 5.27173e-14 0
-3.70932e-14 -6.36585e-14 0
4.48781e-14 7.67945e-14 0
-5.42452e-14 -9.25494e-14 0
6.55035e-14 1.11427e-13 0
-7.9025e-14 -1.34024e-13 0
9.52439e-14 1.61049e-13 0
-1.14689e-13 -1.93332e-13 0
1.37964e-13 2.31867e-13 0
-1.65825e-13 -2.77808e-13 0
1.99095e-13 3.32548e-13 0
-2.38877e-13 -3.97667e-13 0
2.86239e-13 4.75135e-13 0
-3.42862e-13 -5.67072e-13 0
4.09984e-13 6.76315e-13 0
-4.90379e-13 -8.05578e-13 0
5.84989e-13 9.59128e-13 0
-6.99018e-13 -1.14005e-12 0
8.31374e-13 1.35531e-12 0
-9.93429e-13 -1.60715e-12 0
1.17634e-12 1.90859e-12 0
-1.40856e-12 -2.25652e-12 0
1.65561e-12 2.67938e-12 0
-1.99535e-12 -3.15427e-12 0
2.31301e-12 3.75225e-12 0
-2.83226e-12 -4.38575e-12 0
3.19335e-12 5.249e-12 0
-4.05222e-12 -6.05361e-12 0
4.3131e-12 7.35566e-12 0
-5.91195e-12 -8.25858e-12 0
5.56465e-12 1.03862e-11 0
-8.98082e-12 -1.10263e-11 0
6.42497e-12 1.4948e-11 0
-1.46689e-11 -1.40725e-11 0
5.10106e-12 2.23928e-11 0
-2.6716e-11 -1.60988e-11 0
-7.51733e-22 -5.55804e-21 0
2.40754e-21 6.44995e-21 0
-4.33143e-21 -9.28228e-21 0
6.23432e-21 1.27492e-20 0
-9.7793e-21 -1.75476e-20 0
1.33389e-20 2.4354e-20 0
-1.87926e-20 -3.42981e-20 0
2.68551e-20 4.72133e-20 0
-3.64286e-20 -6.56978e-20 0
5.05712e-20 9.03048e-20 0
-6.98536e-20 -1.23919e-19 0
9.49605e-20 1.69601e-19 0
-1.29379e-19 -2.3127e-19 0
1.75366e-19 3.14171e-19 0
-2.35939e-19 -4.25514e-19 0
3.1737e-19 5.7369e-19 0
-4.24345e-19 -7.70715e-19 0
5.65035e-19 1.03124e-18 0
-7.506e-19 -1.37409e-18 0
9.92681e-19 1.82382e-18 0
-1.30777e-18 -2.41104e-18 0
1.71652e-18 3.17447e-18 0
-2.24432e-18 -4.16315e-18 0
2.92354e-18 5.43824e-18 0
-3.79454e-18 -7.07614e-18 0
4.90746e-18 9.17161e-18 0
-6.32487e-18 -1.18428e-17 0
8.12419e-18 1.5235e-17 0
-1.04017e-17 -1.95284e-17 0
1.32762e-17 2.49445e-17 0
-1.68948e-17 -3.17562e-17 0
2.14393e-17 4.02987e-17 0
-2.71342e-17 -5.09846e-17 0
3.42568e-17 6.43206e-17 0
-4.31492e-17 -8.09297e-17 0
5.42339e-17 1.01579e-16 0
-6.80319e-17 -1.27209e-16 0
8.5186e-17 1.58982e-16 0
-1.06488e-16 -1.98322e-16 0
1.32915e-16 2.46984e-16 0
-1.65667e-16 -3.07122e-16 0
2.06221e-16 3.81379e-16 0
-2.56388e-16 -4.72999e-16 0
3.18392e-16 5.85945e-16 0
-3.94953e-16 -7.25066e-16 0
4.89398e-16 8.96268e-16 0
-6.0579e-16 -1.10674e-15 0
7.4908e-16 1.36524e-15 0
-9.25303e-16 -1.68236e-15 0
1.1418e-15 2.07097e-15 0
-1.40748e-15 -2.54665e-15 0
1.73318e-15 3.12824e-15 0
-2.13203e-15 -3.83854e-15 0
2.61994e-15 4.70508e-15 0
-3.2162e-15 -5.76112e-15 0
3.9441e-15 7.04677e-15 0
-4.83182e-15 -8.61036e-15 0
5.91335e-15 1.05101e-14 0
-7.2297e-15 -1.28158e-14 0
8.83025e-15 1.56116e-14 0
-1.07744e-14 -1.89981e-14 0
1.31337e-14 2.3096e-14 0
-1.59938e-14 -2.80495e-14 0
1.94576e-14 3.40314e-14 0
-2.36486e-14 -4.12476e-14 0
2.87141e-14 4.99443e-14 0
-3.48311e-14 -6.04147e-14 0
4.22102e-14 7.30081e-14 0
-5.1104e-14 -8.81398e-14 0
6.18116e-14 1.06304e-13 0
-7.46935e-14 -1.28086e-13 0
9.01715e-14 1.54184e-13 0
-1.0876e-13 -1.85417e-13 0
1.31048e-13 2.22768e-13 0
-1.57773e-13 -2.67377e-13 0
1.8974e-13 3.2063e-13 0
-2.28032e-13 -3.84097e-13 0
2.73695e-13 4.5974e-13 0
-3.28386e-13 -5.49679e-13 0
3.93323e-13 6.56746e-13 0
-4.71245e-13 -7.83672e-13 0
5.6309e-13 9.3473e-13 0
-6.74e-13 -1.11305e-12 0
8.02929e-13 1.32562e-12 0
-9.6111e-13 -1.57479e-12 0
1.1399e-12 1.87357e-12 0
-1.36738e-12 -2.21918e-12 0
1.60969e-12 2.63984e-12 0
-1.94365e-12 -3.1135e-12 0
2.25639e-12 3.71042e-12 0
-2.76842e-12 -4.34525e-12 0
3.12562e-12 5.2094e-12 0
-3.97459e-12 -6.02067e-12 0
4.236e-12 7.32619e-12 0
-5.8183e-12 -8.24681e-12 0
5.48501e-12 1.03792e-11 0
-8.86585e-12 -1.10606e-11 0
6.36222e-12 1.49795e-11 0
-1.45159e-11 -1.41994e-11 0
5.10611e-12 2.24774e-11 0
-2.64712e-11 -1.64102e-11 0
-7.97407e-22 -6.44562e-21 0
2.43638e-21 7.83503e-21 0
-4.48219e-21 -1.07351e-20 0
7.07324e-21 1.44965e-20 0
-1.03503e-20 -2.00249e-20 0
1.48261e-20 2.77406e-20 0
-2.07213e-20 -3.81282e-20 0
2.8657e-20 5.2392e-20 0
-3.93917e-20 -7.18076e-20 0
5.37707e-20 9.81641e-20 0
-7.30617e-20 -1.33682e-19 0
9.88936e-20 1.81446e-19 0
-1.33221e-19 -2.45331e-19 0
1.78798e-19 3.30362e-19 0
-2.39103e-19 -4.43241e-19 0
3.18373e-19 5.92325e-19 0
-4.2241e-19 -7.88349e-19 0
5.58303e-19 1.04538e-18 0
-7.35087e-19 -1.3807e-18 0
9.64375e-19 1.81647e-18 0
-1.26052e-18 -2.38047e-18 0
1.64174e-18 3.10792e-18 0
-2.131e-18 -4.04227e-18 0
2.75668e-18 5.23826e-18 0
-3.55444e-18 -6.76367e-18 0
4.56869e-18 8.70281e-18 0
-5.85459e-18 -1.11602e-17 0
7.48095e-18 1.42651e-17 0
-9.53307e-18 -1.81779e-17 0
1.21169e-17 2.30963e-17 0
-1.53641e-17 -2.92648e-17 0
1.94381e-17 3.69863e-17 0
-2.45413e-17 -4.66345e-17 0
3.09252e-17 5.86718e-17 0
-3.8901e-17 -7.36699e-17 0
4.88546e-17 9.23356e-17 0
-6.12634e-17 -1.15542e-16 0
7.67179e-17 1.44367e-16 0
-9.59475e-17 -1.80139e-16 0
1.19852e-16 2.24496e-16 0
-1.4954e-16 -2.79453e-16 0
1.86376e-16 3.4748e-16 0
-2.32037e-16 -4.31611e-16 0
2.88578e-16 5.35553e-16 0
-3.58523e-16 -6.6384e-16 0
4.44955e-16 8.22001e-16 0
-5.51647e-16 -1.01677e-15 0
6.83207e-16 1.25636e-15 0
-8.45255e-16 -1.55075e-15 0
1.04464e-15 1.91205e-15 0
-1.28971e-15 -2.35499e-15 0
1.59062e-15 2.89744e-15 0
-1.95969e-15 -3.56104e-15 0
2.41191e-15 4.37202e-15 0
-2.96544e-15 -5.36212e-15 0
3.64231e-15 6.56964e-15 0
-4.46916e-15 -8.04086e-15 0
5.47821e-15 9.83153e-15 0
-6.70837e-15 -1.20088e-14 0
8.2066e-15 1.46533e-14 0
-1.00295e-14 -1.78622e-14 0
1.22452e-14 2.17519e-14 0
-1.49356e-14 -2.64619e-14 0
1.81994e-14 3.21596e-14 0
-2.21548e-14 -3.90453e-14 0
2.69435e-14 4.73583e-14 0
-3.27358e-14 -5.73844e-14 0
3.97348e-14 6.94651e-14 0
-4.81846e-14 -8.40066e-14 0
5.83746e-14 1.01494e-13 0
-7.06543e-14 -1.22501e-13 0
8.54333e-14 1.47716e-13 0
-1.03212e-13 -1.77946e-13 0
1.24565e-13 2.14163e-13 0
-1.50212e-13 -2.57497e-13 0
1.80941e-13 3.09321e-13 0
-2.17812e-13 -3.71197e-13 0
2.61855e-13 4.45079e-13 0
-3.14697e-13 -5.33084e-13 0
3.77541e-13 6.38043e-13 0
-4.53087e-13 -7.62698e-13 0
5.42271e-13 9.11326e-13 0
-6.50171e-13 -1.08711e-12 0
7.75788e-13 1.29703e-12 0
-9.30214e-13 -1.54358e-12 0
1.105e-12 1.83973e-12 0
-1.32785e-12 -2.18301e-12 0
1.56555e-12 2.60147e-12 0
-1.89384e-12 -3.07387e-12 0
2.20175e-12 3.66965e-12 0
-2.70663e-12 -4.3057e-12 0
3.06e-12 5.17062e-12 0
-3.89909e-12 -5.98835e-12 0
4.16098e-12 7.29713e-12 0
-5.72669e-12 -8.2351e-12 0
5.40723e-12 1.03719e-11 0
-8.75259e-12 -1.10941e-11 0
6.30075e-12 1.50101e-11 0
-1.43638e-11 -1.43245e-11 0
5.11145e-12 2.25605e-11 0
-2.62262e-11 -1.67185e-11 0
-8.98639e-22 -7.13709e-21 0
2.72748e-21 8.61214e-21 0
-4.93165e-21 -1.19328e-20 0
7.60511e-21 1.60565e-20 0
-1.1147e-20 -2.20463e-20 0
1.56642e-20 3.01955e-20 0
-2.16887e-20 -4.10658e-20 0
2.98198e-20 5.60926e-20 0
-4.05252e-20 -7.62954e-20 0
5.49771e-20 1.03123e-19 0
-7.40478e-20 -1.39354e-19 0
9.93638e-20 1.87442e-19 0
-1.32837e-19 -2.51092e-19 0
1.76823e-19 3.35186e-19 0
-2.34428e-19 -4.45794e-19 0
3.0971e-19 5.90457e-19 0
-4.07589e-19 -7.79323e-19 0
5.34521e-19 1.02453e-18 0
-6.98605e-19 -1.34191e-18 0
9.09945e-19 1.75132e-18 0
-1.1814e-18 -2.27761e-18 0
1.52911e-18 2.95147e-18 0
-1.97299e-18 -3.81186e-18 0
2.53835e-18 4.90709e-18 0
-3.25659e-18 -6.29728e-18 0
4.16706e-18 8.05737e-18 0
-5.31893e-18 -1.02804e-17 0
6.77343e-18 1.30824e-17 0
-8.60695e-18 -1.6607e-17 0
1.09151e-17 2.10331e-17 0
-1.38165e-17 -2.65833e-17 0
1.74593e-17 3.35338e-17 0
-2.20279e-17 -4.22278e-17 0
2.77513e-17 5.30916e-17 0
-3.49146e-17 -6.6654e-17 0
4.38713e-17 8.35701e-17 0
-5.50598e-17 -1.04651e-16 0
6.90231e-17 1.309e-16 0
-8.64322e-17 -1.63554e-16 0
1.08116e-16 2.04137e-16 0
-1.35097e-16 -2.54525e-16 0
1.68635e-16 3.17022e-16 0
-2.10276e-16 -3.94453e-16 0
2.61926e-16 4.90278e-16 0
-3.25918e-16 -6.08733e-16 0
4.05115e-16 7.54994e-16 0
-5.03025e-16 -9.35384e-16 0
6.23938e-16 1.15762e-15 0
-7.73101e-16 -1.43111e-15 0
9.56918e-16 1.7673e-15 0
-1.18321e-15 -2.18016e-15 0
1.46149e-15 2.68664e-15 0
-1.80338e-15 -3.30732e-15 0
2.22296e-15 4.06718e-15 0
-2.73739e-15 -4.99648e-15 0
3.36745e-15 6.13183e-15 0
-4.13837e-15 -7.51749e-15 0
5.08068e-15 9.20688e-15 0
-6.23133e-15 -1.12645e-14 0
7.63497e-15 1.37679e-14 0
-9.34553e-15 -1.68108e-14 0
1.1428e-14 2.05055e-14 0
-1.39609e-14 -2.49873e-14 0
1.70384e-14 3.04183e-14 0
-2.07741e-14 -3.6993e-14 0
2.53043e-14 4.49444e-14 0
-3.07929e-14 -5.45512e-14 0
3.74357e-14 6.61468e-14 0
-4.54685e-14 -8.01288e-14 0
5.51716e-14 9.69725e-14 0
-6.68838e-14 -1.17243e-13 0
8.10029e-14 1.41615e-13 0
-9.80161e-14 -1.70888e-13 0
1.18482e-13 2.0602e-13 0
-1.43107e-13 -2.48131e-13 0
1.72657e-13 2.98581e-13 0
-2.08175e-13 -3.58925e-13 0
2.50671e-13 4.31107e-13 0
-3.01743e-13 -5.17241e-13 0
3.62579e-13 6.20155e-13 0
-4.35842e-13 -7.42603e-13 0
5.22465e-13 8.88862e-13 0
-6.2746e-13 -1.06216e-12 0
7.49874e-13 1.26949e-12 0
-9.00657e-13 -1.51346e-12 0
1.07155e-12 1.807e-12 0
-1.28989e-12 -2.14798e-12 0
1.52309e-12 2.56422e-12 0
-1.8458e-12 -3.03533e-12 0
2.14898e-12 3.62992e-12 0
-2.6468e-12 -4.26708e-12 0
2.99638e-12 5.13265e-12 0
-3.82562e-12 -5.95662e-12 0
4.08795e-12 7.26846e-12 0
-5.63703e-12 -8.22344e-12 0
5.33124e-12 1.03644e-11 0
-8.64097e-12 -1.11269e-11 0
6.24054e-12 1.50398e-11 0
-1.42128e-11 -1.44478e-11 0
5.11706e-12 2.26421e-11 0
-2.59811e-11 -1.70237e-11 0
-9.40081e-22 -7.76305e-21 0
2.8459e-21 9.42682e-21 0
-5.21137e-21 -1.286e-20 0
7.86925e-21 1.72263e-20 0
-1.14173e-20 -2.33895e-20 0
1.59913e-20 3.15424e-20 0
-2.19827e-20 -4.29306e-20 0
2.99622e-20 5.78803e-20 0
-4.05665e-20 -7.79305e-20 0
5.42583e-20 1.04828e-19 0
-7.27519e-20 -1.40183e-19 0
9.67789e-20 1.86898e-19 0
-1.28277e-19 -2.48337e-19 0
1.69442e-19 3.28717e-19 0
-2.22905e-19 -4.33505e-19 0
2.92321e-19 5.69697e-19 0
-3.82151e-19 -7.45928e-19 0
4.97804e-19 9.73424e-19 0
-6.46806e-19 -1.26594e-18 0
8.37688e-19 1.64109e-18 0
-1.08202e-18 -2.12054e-18 0
1.39379e-18 2.73193e-18 0
-1.79072e-18 -3.50965e-18 0
2.29523e-18 4.49655e-18 0
-2.93548e-18 -5.74638e-18 0
3.74621e-18 7.3264e-18 0
-4.77192e-18 -9.32035e-18 0
6.06739e-18 1.18332e-17 0
-7.70201e-18 -1.49959e-17 0
9.76213e-18 1.89719e-17 0
-1.23556e-17 -2.39654e-17 0
1.56175e-17 3.02307e-17 0
-1.9716e-17 -3.80846e-17 0
2.48608e-17 4.79214e-17 0
-3.13127e-17 -6.02306e-17 0
3.9396e-17 7.56196e-17 0
-4.95128e-17 -9.48402e-17 0
6.21618e-17 1.18823e-16 0
-7.79601e-17 -1.48715e-16 0
9.76701e-17 1.85933e-16 0
-1.22234e-16 -2.32218e-16 0
1.52814e-16 2.89716e-16 0
-1.9084e-16 -3.6106e-16 0
2.38075e-16 4.49481e-16 0
-2.96684e-16 -5.58946e-16 0
3.69327e-16 6.94313e-16 0
-4.59271e-16 -8.61527e-16 0
5.70516e-16 1.06786e-15 0
-7.07965e-16 -1.32221e-15 0
8.77615e-16 1.63541e-15 0
-1.08679e-15 -2.02068e-15 0
1.34445e-15 2.49413e-15 0
-1.66149e-15 -3.07532e-15 0
2.0512e-15 3.78804e-15 0
-2.52976e-15 -4.66114e-15 0
3.11682e-15 5.7296e-15 0
-3.83626e-15 -7.03578e-15 0
4.71703e-15 8.63094e-15 0
-5.79423e-15 -1.0577e-14 0
7.11035e-15 1.29488e-14 0
-8.71679e-15 -1.58364e-14 0
1.06756e-14 1.93486e-14 0
-1.30619e-14 -2.36162e-14 0
1.5966e-14 2.87966e-14 0
-1.94968e-14 -3.50785e-14 0
2.37853e-14 4.26889e-14 0
-2.89894e-14 -5.18994e-14 0
3.52981e-14 6.30357e-14 0
-4.29392e-14 -7.6487e-14 0
5.21839e-14 9.27194e-14 0
-6.33609e-14 -1.12288e-13 0
7.68564e-14 1.35857e-13 0
-9.31449e-14 -1.64215e-13 0
1.12771e-13 1.98308e-13 0
-1.36423e-13 -2.39244e-13 0
1.64853e-13 2.88374e-13 0
-1.9908e-13 -3.47242e-13 0
2.40096e-13 4.17782e-13 0
-2.89475e-13 -5.02107e-13 0
3.48386e-13 6.03036e-13 0
-4.19455e-13 -7.23338e-13 0
5.0361e-13 8.67289e-13 0
-6.058e-13 -1.03816e-12 0
7.25117e-13 1.24295e-12 0
-8.72366e-13 -1.48438e-12 0
1.03948e-12 1.77534e-12 0
-1.25342e-12 -2.11403e-12 0
1.48222e-12 2.52806e-12 0
-1.79947e-12 -2.99784e-12 0
2.098e-12 3.59118e-12 0
-2.58883e-12 -4.22936e-12 0
2.93467e-12 5.09545e-12 0
-3.7541e-12 -5.92548e-12 0
4.01685e-12 7.24019e-12 0
-5.54926e-12 -8.21185e-12 0
5.25697e-12 1.03568e-11 0
-8.53094e-12 -1.1159e-11 0
6.18154e-12 1.50687e-11 0
-1.40627e-11 -1.45694e-11 0
5.12292e-12 2.27223e-11 0
-2.57359e-11 -1.7326e-11 0
-1.00877e-21 -8.12037e-21 0
2.97546e-21 9.9239e-21 0
-5.11503e-21 -1.34423e-20 0
7.87085e-21 1.77626e-20 0
-1.14532e-20 -2.3829e-20 0
1.5708e-20 3.21429e-20 0
-2.16451e-20 -4.30772e-20 0
2.92921e-20 5.76698e-20 0
-3.90545e-20 -7.71974e-20 0
5.23321e-20 1.02667e-19 0
-6.92291e-20 -1.36328e-19 0
9.13425e-20 1.80394e-19 0
-1.20439e-19 -2.37702e-19 0
1.57741e-19 3.12346e-19 0
-2.06269e-19 -4.08982e-19 0
2.69054e-19 5.33695e-19 0
-3.49581e-19 -6.94421e-19 0
4.53434e-19 9.00668e-19 0
-5.86434e-19 -1.16483e-18 0
7.56379e-19 1.50241e-18 0
-9.73807e-19 -1.93265e-18 0
1.25057e-18 2.48032e-18 0
-1.60287e-18 -3.17594e-18 0
2.05089e-18 4.05809e-18 0
-2.61915e-18 -5.17545e-18 0
3.33986e-18 6.58873e-18 0
-4.25265e-18 -8.37438e-18 0
5.40719e-18 1.06284e-17 0
-6.86672e-18 -1.34705e-17 0
8.70948e-18 1.70513e-17 0
-1.10338e-17 -2.15586e-17 0
1.39633e-17 2.72269e-17 0
-1.76509e-17 -3.43487e-17 0
2.22887e-17 4.32879e-17 0
-2.81154e-17 -5.44968e-17 0
3.54277e-17 6.85367e-17 0
-4.45946e-17 -8.61032e-17 0
5.60737e-17 1.08057e-16 0
-7.04321e-17 -1.35463e-16 0
8.83724e-17 1.69635e-16 0
-1.10763e-16 -2.12194e-16 0
1.38677e-16 2.65138e-16 0
-1.73439e-16 -3.30929e-16 0
2.16682e-16 4.12592e-16 0
-2.70418e-16 -5.13848e-16 0
3.37124e-16 6.39266e-16 0
-4.19842e-16 -7.94448e-16 0
5.2231e-16 9.86256e-16 0
-6.49113e-16 -1.22309e-15 0
8.05865e-16 1.51521e-15 0
-9.99443e-16 -1.87515e-15 0
1.23825e-15 2.31819e-15 0
-1.53256e-15 -2.86295e-15 0
1.89488e-15 3.53207e-15 0
-2.3405e-15 -4.35309e-15 0
2.88799e-15 5.35947e-15 0
-3.55997e-15 -6.59177e-15 0
4.38392e-15 8.09918e-15 0
-5.3932e-15 -9.94125e-15 0
6.62827e-15 1.219e-14 0
-8.13813e-15 -1.49325e-14 0
9.98211e-15 1.82736e-14 0
-1.2232e-14 -2.23402e-14 0
1.49743e-14 2.72848e-14 0
-1.83137e-14 -3.32909e-14 0
2.23762e-14 4.05793e-14 0
-2.73137e-14 -4.94149e-14 0
3.33087e-14 6.01161e-14 0
-4.05814e-14 -7.30638e-14 0
4.93943e-14 8.8715e-14 0
-6.00662e-14 -1.07615e-13 0
7.29724e-14 1.30418e-13 0
-8.85744e-14 -1.579e-13 0
1.07403e-13 1.90997e-13 0
-1.30131e-13 -2.30807e-13 0
1.57493e-13 2.78666e-13 0
-1.90489e-13 -3.36111e-13 0
2.30092e-13 4.05067e-13 0
-2.77849e-13 -4.87639e-13 0
3.34912e-13 5.86644e-13 0
-4.0387e-13 -7.04859e-13 0
4.85649e-13 8.4656e-13 0
-5.8513e-13 -1.01506e-12 0
7.01449e-13 1.21735e-12 0
-8.4527e-13 -1.45628e-12 0
1.00871e-12 1.74471e-12 0
-1.21836e-12 -2.08112e-12 0
1.44287e-12 2.49293e-12 0
-1.75475e-12 -2.96136e-12 0
2.04872e-12 3.55341e-12 0
-2.53265e-12 -4.19251e-12 0
2.87479e-12 5.05901e-12 0
-3.68445e-12 -5.89491e-12 0
3.94759e-12 7.21231e-12 0
-5.46331e-12 -8.20032e-12 0
5.18435e-12 1.0349e-11 0
-8.42244e-12 -1.11905e-11 0
6.12371e-12 1.50968e-11 0
-1.39136e-11 -1.46894e-11 0
5.12903e-12 2.28011e-11 0
-2.54905e-11 -1.76253e-11 0
-1.00685e-21 -8.2296e-21 0
2.81647e-21 1.01088e-20 0
-5.1275e-21 -1.33921e-20 0
7.85892e-21 1.76227e-20 0
-1.09235e-20 -2.36407e-20 0
1.52976e-20 3.14119e-20 0
-2.06766e-20 -4.18548e-20 0
2.75085e-20 5.57436e-20 0
-3.68796e-20 -7.37746e-20 0
4.85448e-20 9.76198e-20 0
-6.39372e-20 -1.28602e-19 0
8.41426e-20 1.68882e-19 0
-1.09854e-19 -2.21236e-19 0
1.43495e-19 2.88835e-19 0
-1.86854e-19 -3.75941e-19 0
2.42448e-19 4.88159e-19 0
-3.14234e-19 -6.32024e-19 0
4.06108e-19 8.16394e-19 0
-5.23653e-19 -1.05207e-18 0
6.74383e-19 1.35279e-18 0
-8.66407e-19 -1.73622e-18 0
1.11143e-18 2.22427e-18 0
-1.42392e-18 -2.84443e-18 0
1.82098e-18 3.63225e-18 0
-2.32632e-18 -4.63141e-18 0
2.96801e-18 5.89772e-18 0
-3.78208e-18 -7.5012e-18 0
4.81424e-18 9.52956e-18 0
-6.12111e-18 -1.20932e-17 0
7.7743e-18 1.53303e-17 0
-9.86387e-18 -1.94134e-17 0
1.25012e-17 2.45588e-17 0
-1.58274e-17 -3.10354e-17 0
2.00171e-17 3.91787e-17 0
-2.52886e-17 -4.94059e-17 0
3.19141e-17 6.22352e-17 0
-4.02317e-17 -7.83102e-17 0
5.06618e-17 9.84283e-17 0
-6.37268e-17 -1.23577e-16 0
8.00737e-17 1.5498e-16 0
-1.00505e-16 -1.94148e-16 0
1.26014e-16 2.42948e-16 0
-1.57827e-16 -3.03684e-16 0
1.97462e-16 3.79194e-16 0
-2.4679e-16 -4.72973e-16 0
3.08117e-16 5.8932e-16 0
-3.84281e-16 -7.33514e-16 0
4.78774e-16 9.12031e-16 0
-5.95885e-16 -1.13281e-15 0
7.40878e-16 1.40556e-15 0
-9.20204e-16 -1.74217e-15 0
1.14177e-15 2.15716e-15 0
-1.41523e-15 -2.66823e-15 0
1.75241e-15 3.29698e-15 0
-2.16773e-15 -4.06972e-15 0
2.67877e-15 5.01843e-15 0
-3.30698e-15 -6.18202e-15 0
4.07843e-15 7.6077e-15 0
-5.02486e-15 -9.35273e-15 0
6.18479e-15 1.14865e-14 0
-7.60498e-15 -1.4093e-14 0
9.34212e-15 1.72737e-14 0
-1.14649e-14 -2.11514e-14 0
1.40563e-14 2.5874e-14 0
-1.72168e-14 -3.16199e-14 0
2.10676e-14 3.86042e-14 0
-2.57552e-14 -4.70852e-14 0
3.14555e-14 5.73739e-14 0
-3.83815e-14 -6.98432e-14 0
4.67873e-14 8.49414e-14 0
-5.69823e-14 -1.03204e-13 0
6.93309e-14 1.25275e-13 0
-8.42824e-14 -1.5192e-13 0
1.02354e-13 1.84063e-13 0
-1.24203e-13 -2.2279e-13 0
1.50548e-13 2.69427e-13 0
-1.82369e-13 -3.25501e-13 0
2.2062e-13 3.92925e-13 0
-2.66822e-13 -4.73801e-13 0
3.22113e-13 5.70939e-13 0
-3.8904e-13 -6.87125e-13 0
4.68528e-13 8.26631e-13 0
-5.65392e-13 -9.92816e-13 0
6.78811e-13 1.19266e-12 0
-8.19303e-13 -1.42914e-12 0
9.79179e-13 1.71505e-12 0
-1.18464e-12 -2.04921e-12 0
1.40496e-12 2.4588e-12 0
-1.71158e-12 -2.92585e-12 0
2.00107e-12 3.51656e-12 0
-2.47817e-12 -4.15649e-12 0
2.81667e-12 5.0233e-12 0
-3.61659e-12 -5.86489e-12 0
3.8801e-12 7.18481e-12 0
-5.3791e-12 -8.18888e-12 0
5.11333e-12 1.03411e-11 0
-8.31542e-12 -1.12213e-11 0
6.06701e-12 1.51241e-11 0
-1.37654e-11 -1.48078e-11 0
5.13538e-12 2.28786e-11 0
-2.5245e-11 -1.79218e-11 0
-9.30036e-22 -8.01559e-21 0
2.79255e-21 9.88323e-21 0
-4.95368e-21 -1.29825e-20 0
7.37363e-21 1.70155e-20 0
-1.03193e-20 -2.25806e-20 0
1.42541e-20 2.97816e-20 0
-1.90389e-20 -3.94848e-20 0
2.5358e-20 5.21025e-20 0
-3.35768e-20 -6.85926e-20 0
4.40476e-20 9.01438e-20 0
-5.7861e-20 -1.181e-19 0
7.56499e-20 1.5424e-19 0
-9.85944e-20 -2.01038e-19 0
1.28271e-19 2.61317e-19 0
-1.66461e-19 -3.38908e-19 0
2.15594e-19 4.3857e-19 0
-2.78862e-19 -5.66324e-19 0
3.59843e-19 7.29968e-19 0
-4.63716e-19 -9.39337e-19 0
5.96759e-19 1.20675e-18 0
-7.66623e-19 -1.54815e-18 0
9.84018e-19 1.98317e-18 0
-1.26123e-18 -2.53745e-18 0
1.61473e-18 3.24274e-18 0
-2.06517e-18 -4.13937e-18 0
2.63817e-18 5.27837e-18 0
-3.36654e-18 -6.7237e-18 0
4.29178e-18 8.55578e-18 0
-5.46519e-18 -1.0876e-17 0
6.95216e-18 1.38107e-17 0
-8.83418e-18 -1.75189e-17 0
1.12135e-17 2.21989e-17 0
-1.42183e-17 -2.80983e-17 0
1.80084e-17 3.55263e-17 0
-2.27837e-17 -4.48678e-17 0
2.87938e-17 5.66021e-17 0
-3.63492e-17 -7.13254e-17 0
4.58369e-17 8.97783e-17 0
-5.77382e-17 -1.1288e-16 0
7.26507e-17 1.4177e-16 0
-9.13167e-17 -1.7786e-16 0
1.14656e-16 2.22897e-16 0
-1.43807e-16 -2.79039e-16 0
1.8018e-16 3.48949e-16 0
-2.25516e-16 -4.35913e-16 0
2.81963e-16 5.43975e-16 0
-3.52172e-16 -6.78112e-16 0
4.39406e-16 8.44437e-16 0
-5.47681e-16 -1.05046e-15 0
6.81933e-16 1.30537e-15 0
-8.48222e-16 -1.62047e-15 0
1.05398e-15 2.00953e-15 0
-1.30832e-15 -2.48944e-15 0
1.62238e-15 3.08079e-15 0
-2.00981e-15 -3.80872e-15 0
2.48726e-15 4.70386e-15 0
-3.07504e-15 -5.80348e-15 0
3.79795e-15 7.15294e-15 0
-4.68615e-15 -8.80733e-15 0
5.77636e-15 1.08335e-14 0
-7.11322e-15 -1.33125e-14 0
8.7509e-15 1.63426e-14 0
-1.07551e-14 -2.00426e-14 0
1.32056e-14 2.45561e-14 0
-1.61988e-14 -3.00566e-14 0
1.98513e-14 3.67533e-14 0
-2.43042e-14 -4.48985e-14 0
2.97275e-14 5.47959e-14 0
-3.63269e-14 -6.68107e-14 0
4.43488e-14 8.13824e-14 0
-5.40931e-14 -9.90372e-14 0
6.59139e-14 1.20409e-13 0
-8.02487e-14 -1.46253e-13 0
9.76015e-14 1.77481e-13 0
-1.18614e-13 -2.15168e-13 0
1.4399e-13 2.60629e-13 0
-1.74688e-13 -3.1538e-13 0
2.11646e-13 3.81323e-13 0
-2.56358e-13 -4.60558e-13 0
3.09945e-13 5.55883e-13 0
-3.74918e-13 -6.70095e-13 0
4.52197e-13 8.07463e-13 0
-5.46533e-13 -9.71382e-13 0
6.57144e-13 1.16883e-12 0
-7.94405e-13 -1.40289e-12 0
9.50811e-13 1.68633e-12 0
-1.15219e-12 -2.01824e-12 0
1.36841e-12 2.42562e-12 0
-1.66986e-12 -2.89127e-12 0
1.95497e-12 3.4806e-12 0
-2.42533e-12 -4.12129e-12 0
2.76023e-12 4.98831e-12 0
-3.55046e-12 -5.83542e-12 0
3.81431e-12 7.15769e-12 0
-5.29657e-12 -8.17751e-12 0
5.04385e-12 1.0333e-11 0
-8.20984e-12 -1.12515e-11 0
6.01139e-12 1.51507e-11 0
-1.3618e-11 -1.49245e-11 0
5.14195e-12 2.29549e-11 0
-2.49994e-11 -1.82155e-11 0
-9.35045e-22 -7.58788e-21 0
2.72849e-21 9.30269e-21 0
-4.55395e-21 -1.22166e-20 0
6.70356e-21 1.59256e-20 0
-9.57649e-21 -2.08665e-20 0
1.27831e-20 2.75452e-20 0
-1.72109e-20 -3.61872e-20 0
2.28506e-20 4.74674e-20 0
-2.98889e-20 -6.22962e-20 0
3.93584e-20 8.14389e-20 0
-5.14291e-20 -1.06184e-19 0
6.69543e-20 1.38332e-19 0
-8.72726e-20 -1.79669e-19 0
1.13269e-19 2.33034e-19 0
-1.46897e-19 -3.01656e-19 0
1.90307e-19 3.89823e-19 0
-2.4578e-19 -5.03155e-19 0
3.17408e-19 6.48413e-19 0
-4.09291e-19 -8.34539e-19 0
5.26752e-19 1.07295e-18 0
-6.77977e-19 -1.37764e-18 0
8.70999e-19 1.76712e-18 0
-1.11786e-18 -2.26433e-18 0
1.43363e-18 2.89822e-18 0
-1.83597e-18 -3.70598e-18 0
2.34922e-18 4.73379e-18 0
-3.00291e-18 -6.04024e-18 0
3.83368e-18 7.69933e-18 0
-4.88946e-18 -9.80328e-18 0
6.22895e-18 1.24685e-17 0
-7.92652e-18 -1.58406e-17 0
1.00757e-17 2.0102e-17 0
-1.27932e-17 -2.5481e-17 0
1.62259e-17 3.22627e-17 0
-2.05567e-17 -4.08034e-17 0
2.60149e-17 5.15472e-17 0
-3.2886e-17 -6.50477e-17 0
4.15271e-17 8.19936e-17 0
-5.23819e-17 -1.03242e-16 0
6.60034e-17 1.29855e-16 0
-8.30781e-17 -1.63154e-16 0
1.04459e-16 2.04772e-16 0
-1.31204e-16 -2.56733e-16 0
1.64622e-16 3.21538e-16 0
-2.06337e-16 -4.02273e-16 0
2.5835e-16 5.02749e-16 0
-3.23139e-16 -6.27659e-16 0
4.03756e-16 7.8278e-16 0
-5.03963e-16 -9.75217e-16 0
6.28393e-16 1.2137e-15 0
-7.82741e-16 -1.50893e-15 0
9.74006e-16 1.87403e-15 0
-1.21078e-15 -2.32509e-15 0
1.50358e-15 2.88177e-15 0
-1.86531e-15 -3.56808e-15 0
2.31175e-15 4.41336e-15 0
-2.86217e-15 -5.45338e-15 0
3.54013e-15 6.73169e-15 0
-4.37434e-15 -8.30132e-15 0
5.39981e-15 1.02267e-14 0
-6.65914e-15 -1.25862e-14 0
8.20415e-15 1.54748e-14 0
-1.00978e-14 -1.90075e-14 0
1.24165e-14 2.33239e-14 0
-1.52531e-14 -2.85925e-14 0
1.87196e-14 3.50173e-14 0
-2.29521e-14 -4.28442e-14 0
2.81147e-14 5.23703e-14 0
-3.44065e-14 -6.39529e-14 0
4.2066e-14 7.80232e-14 0
-5.13841e-14 -9.50981e-14 0
6.2705e-14 1.15802e-13 0
-7.64546e-14 -1.40878e-13 0
9.31241e-14 1.71228e-13 0
-1.13341e-13 -2.07916e-13 0
1.37791e-13 2.52245e-13 0
-1.67417e-13 -3.05719e-13 0
2.03137e-13 3.70232e-13 0
-2.4642e-13 -4.47875e-13 0
2.98371e-13 5.41442e-13 0
-3.61463e-13 -6.53734e-13 0
4.36612e-13 7.89016e-13 0
-5.28503e-13 -9.50722e-13 0
6.36395e-13 1.14582e-12 0
-7.7052e-13 -1.3775e-12 0
9.23552e-13 1.6585e-12 0
-1.12094e-12 -1.98819e-12 0
1.33317e-12 2.39337e-12 0
-1.62955e-12 -2.8576e-12 0
1.91035e-12 3.44551e-12 0
-2.37404e-12 -4.08688e-12 0
2.7054e-12 4.95401e-12 0
-3.48598e-12 -5.80648e-12 0
3.75016e-12 7.13095e-12 0
-5.21567e-12 -8.16623e-12 0
4.97585e-12 1.03249e-11 0
-8.10565e-12 -1.12811e-11 0
5.95684e-12 1.51765e-11 0
-1.34715e-11 -1.50398e-11 0
5.14874e-12 2.30298e-11 0
-2.47536e-11 -1.85064e-11 0
-8.63363e-22 -6.96646e-21 0
2.40896e-21 8.63514e-21 0
-4.12236e-21 -1.11515e-20 0
6.03287e-21 1.44779e-20 0
-8.45296e-21 -1.8935e-20 0
1.14543e-20 2.47643e-20 0
-1.52153e-20 -3.24761e-20 0
2.01536e-20 4.2463e-20 0
-2.64144e-20 -5.55148e-20 0
3.46093e-20 7.23443e-20 0
-4.52824e-20 -9.42088e-20 0
5.88946e-20 1.22533e-19 0
-7.6638e-20 -1.59053e-19 0
9.95949e-20 2.06143e-19 0
-1.29101e-19 -2.66962e-19 0
1.67351e-19 3.45149e-19 0
-2.1649e-19 -4.45867e-19 0
2.79758e-19 5.75334e-19 0
-3.61301e-19 -7.41449e-19 0
4.65904e-19 9.54722e-19 0
-6.00251e-19 -1.22798e-18 0
7.7251e-19 1.57783e-18 0
-9.93116e-19 -2.0253e-18 0
1.27545e-18 2.59679e-18 0
-1.63616e-18 -3.32611e-18 0
2.09659e-18 4.25559e-18 0
-2.68369e-18 -5.4387e-18 0
3.43122e-18 6.94287e-18 0
-4.38208e-18 -8.85302e-18 0
5.59021e-18 1.12757e-17 0
-7.12331e-18 -1.43451e-17 0
9.06681e-18 1.82292e-17 0
-1.15276e-17 -2.31387e-17 0
1.46401e-17 2.93376e-17 0
-1.85728e-17 -3.71557e-17 0
2.35359e-17 4.70055e-17 0
-2.97932e-17 -5.94016e-17 0
3.76734e-17 7.49851e-17 0
-4.75867e-17 -9.45549e-17 0
6.00445e-17 1.19104e-16 0
-7.56831e-17 -1.49866e-16 0
9.52935e-17 1.88372e-16 0
-1.19859e-16 -2.36518e-16 0
1.50598e-16 2.96655e-16 0
-1.89022e-16 -3.71687e-16 0
2.37001e-16 4.65206e-16 0
-2.9685e-16 -5.81641e-16 0
3.71426e-16 7.26458e-16 0
-4.64259e-16 -9.06384e-16 0
5.79698e-16 1.1297e-15 0
-7.231e-16 -1.40658e-15 0
9.01058e-16 1.74952e-15 0
-1.12167e-15 -2.17385e-15 0
1.39489e-15 2.69833e-15 0
-1.73292e-15 -3.34595e-15 0
2.15071e-15 4.14481e-15 0
-2.66657e-15 -5.12921e-15 0
3.30288e-15 6.34106e-15 0
-4.08699e-15 -7.83138e-15 0
5.05227e-15 9.66235e-15 0
-6.23943e-15 -1.19096e-14 0
7.69803e-15 1.4665e-14 0
-9.48843e-15 -1.80403e-14 0
1.16839e-14 2.21707e-14 0
-1.43737e-14 -2.72202e-14 0
1.76656e-14 3.33876e-14 0
-2.1691e-14 -4.09128e-14 0
2.66082e-14 5.00861e-14 0
-3.26099e-14 -6.12575e-14 0
3.9927e-14 7.485e-14 0
-4.88419e-14 -9.13713e-14 0
5.96892e-14 1.11436e-13 0
-7.28832e-14 -1.35777e-13 0
8.8903e-14 1.65285e-13 0
-1.08361e-13 -2.01012e-13 0
1.31929e-13 2.44249e-13 0
-1.6053e-13 -2.96492e-13 0
1.95064e-13 3.59621e-13 0
-2.36976e-13 -4.35724e-13 0
2.87354e-13 5.27583e-13 0
-3.48635e-13 -6.38008e-13 0
4.21729e-13 7.71256e-13 0
-5.11256e-13 -9.30798e-13 0
6.16515e-13 1.12359e-12 0
-7.47593e-13 -1.35294e-12 0
8.97344e-13 1.63152e-12 0
-1.09084e-12 -1.95902e-12 0
1.29917e-12 2.362e-12 0
-1.59057e-12 -2.8248e-12 0
1.86715e-12 3.41126e-12 0
-2.32425e-12 -4.05323e-12 0
2.65211e-12 4.92039e-12 0
-3.42309e-12 -5.77805e-12 0
3.68759e-12 7.10458e-12 0
-5.13633e-12 -8.15504e-12 0
4.9093e-12 1.03167e-11 0
-8.0028e-12 -1.13102e-11 0
5.9033e-12 1.52017e-11 0
-1.33258e-11 -1.51536e-11 0
5.15573e-12 2.31036e-11 0
-2.45077e-11 -1.87945e-11 0
-7.3525e-22 -6.27131e-21 0
2.16459e-21 7.79346e-21 0
-3.57388e-21 -9.97604e-21 0
5.30487e-21 1.29197e-20 0
-7.39426e-21 -1.68274e-20 0
9.97291e-21 2.19666e-20 0
-1.33151e-20 -2.87362e-20 0
1.75865e-20 3.75464e-20 0
-2.30768e-20 -4.90197e-20 0
3.03712e-20 6.37569e-20 0
-3.96564e-20 -8.30837e-20 0
5.15939e-20 1.08074e-19 0
-6.73571e-20 -1.40343e-19 0
8.73814e-20 1.82153e-19 0
-1.13609e-19 -2.36139e-19 0
1.47379e-19 3.05804e-19 0
-1.90856e-19 -3.95763e-19 0
2.47271e-19 5.11414e-19 0
-3.19676e-19 -6.60409e-19 0
4.12851e-19 8.51836e-19 0
-5.32836e-19 -1.09753e-18 0
6.8678e-19 1.41267e-18 0
-8.84264e-19 -1.81613e-18 0
1.13723e-18 2.33226e-18 0
-1.46086e-18 -2.9917e-18 0
1.87455e-18 3.83302e-18 0
-2.40257e-18 -4.90544e-18 0
3.07578e-18 6.27069e-18 0
-3.93338e-18 -8.00644e-18 0
5.0242e-18 1.02112e-17 0
-6.41048e-18 -1.30082e-17 0
8.17016e-18 1.65529e-17 0
-1.04014e-17 -2.10399e-17 0
1.32277e-17 2.67138e-17 0
-1.68034e-17 -3.38807e-17 0
2.13227e-17 4.29236e-17 0
-2.70284e-17 -5.43212e-17 0
3.42239e-17 6.86709e-17 0
-4.32886e-17 -8.67178e-17 0
5.4696e-17 1.0939e-16 0
-6.90358e-17 -1.37841e-16 0
8.70429e-17 1.73506e-16 0
-1.09631e-16 -2.18166e-16 0
1.37936e-16 2.7403e-16 0
-1.73366e-16 -3.43835e-16 0
2.1767e-16 4.30967e-16 0
-2.73012e-16 -5.39613e-16 0
3.4207e-16 6.74944e-16 0
-4.28155e-16 -8.43337e-16 0
5.35355e-16 1.05265e-15 0
-6.68712e-16 -1.31257e-15 0
8.34439e-16 1.63497e-15 0
-1.04018e-15 -2.03449e-15 0
1.29535e-15 2.52906e-15 0
-1.6115e-15 -3.14067e-15 0
2.0028e-15 3.89625e-15 0
-2.48665e-15 -4.82875e-15 0
3.08432e-15 5.97843e-15 0
-3.82188e-15 -7.39448e-15 0
4.73117e-15 9.13686e-15 0
-5.85109e-15 -1.12787e-14 0
7.22905e-15 1.39088e-14 0
-8.92292e-15 -1.71356e-14 0
1.1003e-14 2.10904e-14 0
-1.35552e-14 -2.59328e-14 0
1.66832e-14 3.18563e-14 0
-2.05138e-14 -3.90952e-14 0
2.51998e-14 4.79334e-14 0
-3.09277e-14 -5.87134e-14 0
3.79212e-14 7.18502e-14 0
-4.64545e-14 -8.78429e-14 0
5.68525e-14 1.07296e-13 0
-6.95188e-14 -1.30932e-13 0
8.49205e-14 1.59631e-13 0
-1.03656e-13 -1.94435e-13 0
1.26382e-13 2.36621e-13 0
-1.54001e-13 -2.87675e-13 0
1.874e-13 3.49466e-13 0
-2.27996e-13 -4.24075e-13 0
2.76862e-13 5.14277e-13 0
-3.36397e-13 -6.22884e-13 0
4.07508e-13 7.54149e-13 0
-4.94748e-13 -9.11576e-13 0
5.97457e-13 1.10212e-12 0
-7.25575e-13 -1.32917e-12 0
8.72135e-13 1.60537e-12 0
-1.06184e-12 -1.93069e-12 0
1.26635e-12 2.33148e-12 0
-1.55286e-12 -2.79283e-12 0
1.8253e-12 3.37782e-12 0
-2.27588e-12 -4.02032e-12 0
2.6003e-12 4.88743e-12 0
-3.36173e-12 -5.75014e-12 0
3.62653e-12 7.07858e-12 0
-5.0585e-12 -8.14394e-12 0
4.84413e-12 1.03083e-11 0
-7.90126e-12 -1.13387e-11 0
5.85076e-12 1.52262e-11 0
-1.31809e-11 -1.52659e-11 0
5.16292e-12 2.31762e-11 0
-2.42617e-11 -1.908e-11 0
-6.83011e-22 -5.49924e-21 0
1.81629e-21 6.88325e-21 0
-2.99734e-21 -8.85477e-21 0
4.72062e-21 1.13164e-20 0
-6.23513e-21 -1.48784e-20 0
8.62142e-21 1.93609e-20 0
-1.16449e-20 -2.52293e-20 0
1.51984e-20 3.30237e-20 0
-2.03924e-20 -4.29183e-20 0
2.65573e-20 5.61243e-20 0
-3.45923e-20 -7.32267e-20 0
4.55769e-20 9.52112e-20 0
-5.90226e-20 -1.24045e-19 0
7.70109e-20 1.61253e-19 0
-1.00267e-19 -2.09385e-19 0
1.29924e-19 2.71863e-19 0
-1.68992e-19 -3.52208e-19 0
2.18932e-19 4.56113e-19 0
-2.8337e-19 -5.89976e-19 0
3.66925e-19 7.62049e-19 0
-4.73949e-19 -9.83443e-19 0
6.11716e-19 1.26754e-18 0
-7.88924e-19 -1.63174e-18 0
1.01562e-18 2.0984e-18 0
-1.30658e-18 -2.69506e-18 0
1.67852e-18 3.45762e-18 0
-2.15392e-18 -4.43075e-18 0
2.76118e-18 5.67111e-18 0
-3.53534e-18 -7.25069e-18 0
4.52177e-18 9.2597e-18 0
-5.77708e-18 -1.18122e-17 0
7.37253e-18 1.50517e-17 0
-9.39864e-18 -1.91586e-17 0
1.19683e-17 2.43595e-17 0
-1.52238e-17 -3.09385e-17 0
1.93445e-17 3.92515e-17 0
-2.45534e-17 -4.97442e-17 0
3.11316e-17 6.29736e-17 0
-3.94304e-17 -7.96352e-17 0
4.98876e-17 1.00597e-16 0
-6.30516e-17 -1.26939e-16 0
7.96046e-17 1.60009e-16 0
-1.00397e-16 -2.0148e-16 0
1.26488e-16 2.5343e-16 0
-1.59192e-16 -3.18439e-16 0
2.00144e-16 3.99704e-16 0
-2.5137e-16 -5.01183e-16 0
3.1538e-16 6.27773e-16 0
-3.95285e-16 -7.85521e-16 0
4.94927e-16 9.81894e-16 0
-6.19055e-16 -1.2261e-15 0
7.73529e-16 1.52946e-15 0
-9.65573e-16 -1.90595e-15 0
1.20408e-15 2.3727e-15 0
-1.50001e-15 -2.95076e-15 0
1.86679e-15 3.66596e-15 0
-2.32096e-15 -4.54995e-15 0
2.88278e-15 5.64147e-15 0
-3.57706e-15 -6.98789e-15 0
4.43422e-15 8.64711e-15 0
-5.49141e-15 -1.06898e-14 0
6.79407e-15 1.3202e-14 0
-8.39763e-15 -1.62887e-14 0
1.03697e-14 2.00777e-14 0
-1.27927e-14 -2.4724e-14 0
1.57667e-14 3.04164e-14 0
-1.94139e-14 -3.73836e-14 0
2.3882e-14 4.5903e-14 0
-2.93514e-14 -5.63103e-14 0
3.60389e-14 6.90124e-14 0
-4.42105e-14 -8.44998e-14 0
5.41823e-14 1.03367e-13 0
-6.63472e-14 -1.26328e-13 0
8.11605e-14 1.54251e-13 0
-9.92064e-14 -1.88165e-13 0
1.21128e-13 2.29338e-13 0
-1.47809e-13 -2.79243e-13 0
1.80119e-13 3.3974e-13 0
-2.19452e-13 -4.12903e-13 0
2.66864e-13 5.01493e-13 0
-3.24717e-13 -6.08332e-13 0
3.93913e-13 7.37663e-13 0
-4.78941e-13 -8.93023e-13 0
5.79177e-13 1.08135e-12 0
-7.0442e-13 -1.30615e-12 0
8.47875e-13 1.58001e-12 0
-1.03387e-12 -1.90317e-12 0
1.23466e-12 2.30177e-12 0
-1.51637e-12 -2.76167e-12 0
1.78474e-12 3.34516e-12 0
-2.22889e-12 -3.98813e-12 0
2.54992e-12 4.85511e-12 0
-3.30183e-12 -5.72272e-12 0
3.56693e-12 7.05293e-12 0
-4.98213e-12 -8.13294e-12 0
4.78029e-12 1.02999e-11 0
-7.80097e-12 -1.13666e-11 0
5.79917e-12 1.52501e-11 0
-1.30368e-11 -1.53768e-11 0
5.17031e-12 2.32476e-11 0
-2.40155e-11 -1.93629e-11 0
-5.71993e-22 -4.84059e-21 0
1.65499e-21 5.98594e-21 0
-2.9291e-21 -7.60687e-21 0
3.8682e-21 1.00231e-20 0
-5.62751e-21 -1.29854e-20 0
7.71436e-21 1.6839e-20 0
-1.0033e-20 -2.21832e-20 0
1.36393e-20 2.88277e-20 0
-1.75931e-20 -3.78952e-20 0
2.30853e-20 4.9564e-20 0
-3.06781e-20 -6.45379e-20 0
3.97618e-20 8.44055e-20 0
-5.21996e-20 -1.09957e-19 0
6.81011e-20 1.43185e-19 0
-8.84352e-20 -1.86403e-19 0
1.15422e-19 2.42138e-19 0
-1.49633e-19 -3.1447e-19 0
1.94216e-19 4.07792e-19 0
-2.52181e-19 -5.28074e-19 0
3.26308e-19 6.8323e-19 0
-4.22349e-19 -8.8268e-19 0
5.45884e-19 1.1391e-18 0
-7.04485e-19 -1.46841e-18 0
9.08609e-19 1.8905e-18 0
-1.16998e-18 -2.43132e-18 0
1.50502e-18 3.12318e-18 0
-1.93406e-18 -4.00729e-18 0
2.4821e-18 5.13614e-18 0
-3.18251e-18 -6.57542e-18 0
4.07561e-18 8.40897e-18 0
-5.21356e-18 -1.07419e-17 0
6.66258e-18 1.37067e-17 0
-8.50423e-18 -1.7471e-17 0
1.08436e-17 2.22444e-17 0
-1.3812e-17 -2.8291e-17 0
1.75728e-17 3.59424e-17 0
-2.23344e-17 -4.56133e-17 0
2.83558e-17 5.78236e-17 0
-3.59614e-17 -7.32236e-17 0
4.55591e-17 9.26252e-17 0
-5.76563e-17 -1.17043e-16 0
7.28887e-17 1.47739e-16 0
-9.20492e-17 -1.86289e-16 0
1.16124e-16 2.3465e-16 0
-1.46343e-16 -2.95255e-16 0
1.84234e-16 3.71123e-16 0
-2.31696e-16 -4.66e-16 0
2.91086e-16 5.84525e-16 0
-3.65322e-16 -7.32437e-16 0
4.58024e-16 9.16833e-16 0
-5.73665e-16 -1.14647e-15 0
7.17774e-16 1.43217e-15 0
-8.9718e-16 -1.78724e-15 0
1.1203e-15 2.22809e-15 0
-1.39752e-15 -2.77488e-15 0
1.74159e-15 3.45238e-15 0
-2.16823e-15 -4.29101e-15 0
2.69672e-15 5.32804e-15 0
-3.35074e-15 -6.60916e-15 0
4.15931e-15 8.19023e-15 0
-5.15798e-15 -1.01396e-14 0
6.39023e-15 1.25406e-14 0
-7.90927e-15 -1.54952e-14 0
9.78e-15 1.91273e-14 0
-1.20817e-14 -2.35881e-14 0
1.49109e-14 2.90613e-14 0
-1.83854e-14 -3.57703e-14 0
2.26479e-14 4.39865e-14 0
-2.7873e-14 -5.40386e-14 0
3.42709e-14 6.63258e-14 0
-4.20999e-14 -8.13302e-14 0
5.16671e-14 9.96373e-14 0
-6.33552e-14 -1.2195e-13 0
7.7608e-14 1.49126e-13 0
-9.49964e-14 -1.82184e-13 0
1.16149e-13 2.2238e-13 0
-1.41932e-13 -2.71177e-13 0
1.73199e-13 3.30422e-13 0
-2.11318e-13 -4.02181e-13 0
2.5733e-13 4.89208e-13 0
-3.13561e-13 -5.94325e-13 0
3.80909e-13 7.21769e-13 0
-4.63796e-13 -8.75109e-13 0
5.61636e-13 1.06127e-12 0
-6.84084e-13 -1.28386e-12 0
8.24518e-13 1.5554e-12 0
-1.00689e-12 -1.87642e-12 0
1.20405e-12 2.27286e-12 0
-1.48104e-12 -2.7313e-12 0
1.74543e-12 3.31325e-12 0
-2.18322e-12 -3.95664e-12 0
2.5009e-12 4.82341e-12 0
-3.24335e-12 -5.69579e-12 0
3.50874e-12 7.02765e-12 0
-4.90717e-12 -8.12203e-12 0
4.71776e-12 1.02915e-11 0
-7.70191e-12 -1.13941e-11 0
5.74851e-12 1.52734e-11 0
-1.28935e-11 -1.54863e-11 0
5.17787e-12 2.3318e-11 0
-2.37692e-11 -1.96432e-11 0
-4.94443e-22 -4.17267e-21 0
1.61472e-21 5.18271e-21 0
-2.04772e-21 -6.86819e-21 0
3.48252e-21 8.70544e-21 0
-5.28986e-21 -1.11502e-20 0
6.32465e-21 1.49862e-20 0
-9.19783e-21 -1.93211e-20 0
1.16412e-20 2.55657e-20 0
-1.52182e-20 -3.35907e-20 0
2.108e-20 4.35323e-20 0
-2.66102e-20 -5.74076e-20 0
3.5264e-20 7.48852e-20 0
-4.64188e-20 -9.7671e-20 0
5.96902e-20 1.27772e-19 0
-7.87778e-20 -1.66136e-19 0
1.01947e-19 2.1647e-19 0
-1.32543e-19 -2.81441e-19 0
1.73191e-19 3.65043e-19 0
-2.23964e-19 -4.73698e-19 0
2.90988e-19 6.13282e-19 0
-3.77154e-19 -7.93284e-19 0
4.87547e-19 1.02522e-18 0
-6.30653e-19 -1.32292e-18 0
8.13718e-19 1.70566e-18 0
-1.04914e-18 -2.19643e-18 0
1.35187e-18 2.82499e-18 0
-1.73864e-18 -3.62988e-18 0
2.23489e-18 4.65847e-18 0
-2.86883e-18 -5.97218e-18 0
3.6782e-18 7.648e-18 0
-4.71235e-18 -9.78262e-18 0
6.02879e-18 1.25e-17 0
-7.70558e-18 -1.59543e-17 0
9.8389e-18 2.03403e-17 0
-1.25468e-17 -2.59049e-17 0
1.59848e-17 3.2955e-17 0
-2.03425e-17 -4.18786e-17 0
2.58592e-17 5.31615e-17 0
-3.28386e-17 -6.7411e-17 0
4.16557e-17 8.53893e-17 0
-5.27848e-17 -1.08047e-16 0
6.68183e-17 1.36571e-16 0
-8.44919e-17 -1.72443e-16 0
1.0673e-16 2.17508e-16 0
-1.34681e-16 -2.74063e-16 0
1.69774e-16 3.44962e-16 0
-2.13792e-16 -4.3375e-16 0
2.68944e-16 5.44826e-16 0
-3.37977e-16 -6.83641e-16 0
4.24299e-16 8.56943e-16 0
-5.32126e-16 -1.07308e-15 0
6.6668e-16 1.34236e-15 0
-8.3442e-16 -1.67751e-15 0
1.04331e-15 2.09422e-15 0
-1.30321e-15 -2.61182e-15 0
1.62622e-15 3.25409e-15 0
-2.0273e-15 -4.05026e-15 0
2.5248e-15 5.03623e-15 0
-3.14132e-15 -6.25603e-15 0
3.90457e-15 7.76364e-15 0
-4.84857e-15 -9.62514e-15 0
6.01498e-15 1.19214e-14 0
-7.45483e-15 -1.47511e-14 0
9.23049e-15 1.82348e-14 0
-1.14183e-14 -2.25197e-14 0
1.41111e-14 2.7785e-14 0
-1.74228e-14 -3.42487e-14 0
2.14913e-14 4.21762e-14 0
-2.64855e-14 -5.18896e-14 0
3.26092e-14 6.37807e-14 0
-4.01132e-14 -7.8323e-14 0
4.92961e-14 9.60931e-14 0
-6.05305e-14 -1.17784e-13 0
7.42494e-14 1.44243e-13 0
-9.10101e-14 -1.76477e-13 0
1.11428e-13 2.1573e-13 0
-1.36351e-13 -2.63456e-13 0
1.66616e-13 3.21488e-13 0
-2.03569e-13 -3.91887e-13 0
2.48235e-13 4.77394e-13 0
-3.02902e-13 -5.80836e-13 0
3.68464e-13 7.0644e-13 0
-4.49278e-13 -8.57805e-13 0
5.44795e-13 1.04184e-12 0
-6.64526e-13 -1.26225e-12 0
8.0202e-13 1.53152e-12 0
-9.80856e-13 -1.85043e-12 0
1.17446e-12 2.24471e-12 0
-1.44682e-12 -2.70167e-12 0
1.7073e-12 3.28208e-12 0
-2.1388e-12 -3.92583e-12 0
2.45319e-12 4.79232e-12 0
-3.18624e-12 -5.66933e-12 0
3.45191e-12 7.00271e-12 0
-4.83356e-12 -8.11123e-12 0
4.65647e-12 1.0283e-11 0
-7.60404e-12 -1.14211e-11 0
5.69876e-12 1.52961e-11 0
-1.27509e-11 -1.55945e-11 0
5.1856e-12 2.33872e-11 0
-2.35228e-11 -1.9921e-11 0
-4.64721e-22 -3.68143e-21 0
6.0073e-22 4.83715e-21 0
-2.42075e-21 -5.71834e-21 0
3.56392e-21 7.41926e-21 0
-3.56329e-21 -1.02986e-20 0
6.48849e-21 1.28247e-20 0
-7.36855e-21 -1.73623e-20 0
1.03944e-20 2.25805e-20 0
-1.49249e-20 -2.91275e-20 0
1.73945e-20 3.91554e-20 0
-2.41448e-20 -5.07798e-20 0
3.1475e-20 6.65393e-20 0
-3.97544e-20 -8.76357e-20 0
5.38343e-20 1.13685e-19 0
-6.87184e-20 -1.48949e-19 0
9.02471e-20 1.93834e-19 0
-1.18899e-19 -2.51691e-19 0
1.52962e-19 3.27868e-19 0
-2.00451e-19 -4.24975e-19 0
2.60075e-19 5.51184e-19 0
-3.36606e-19 -7.1421e-19 0
4.37038e-19 9.23587e-19 0
-5.64537e-19 -1.194e-18 0
7.29952e-19 1.54115e-18 0
-9.43097e-19 -1.98693e-18 0
1.21494e-18 2.55968e-18 0
-1.56607e-18 -3.29277e-18 0
2.01449e-18 4.23187e-18 0
-2.58897e-18 -5.43254e-18 0
3.32563e-18 6.96532e-18 0
-4.26382e-18 -8.92209e-18 0
5.46343e-18 1.14149e-17 0
-6.99278e-18 -1.45881e-17 0
8.93693e-18 1.86245e-17 0
-1.14139e-17 -2.37499e-17 0
1.45591e-17 3.0254e-17 0
-1.85498e-17 -3.84982e-17 0
2.36123e-17 4.8935e-17 0
-3.00212e-17 -6.21359e-17 0
3.81314e-17 7.88128e-17 0
-4.83828e-17 -9.98588e-17 0
6.13219e-17 1.26393e-16 0
-7.76433e-17 -1.59807e-16 0
9.82052e-17 2.01842e-16 0
-1.24081e-16 -2.54669e-16 0
1.56616e-16 3.20986e-16 0
-1.97475e-16 -4.04154e-16 0
2.4874e-16 5.08344e-16 0
-3.12994e-16 -6.38735e-16 0
3.93442e-16 8.01752e-16 0
-4.9407e-16 -1.00535e-15 0
6.19808e-16 1.25936e-15 0
-7.76765e-16 -1.57596e-15 0
9.72496e-16 1.97016e-15 0
-1.21634e-15 -2.46051e-15 0
1.51981e-15 3.06982e-15 0
-1.89712e-15 -3.82622e-15 0
2.36579e-15 4.76428e-15 0
-2.94736e-15 -5.92648e-15 0
3.66831e-15 7.36496e-15 0
-4.5612e-15 -9.14368e-15 0
5.66597e-15 1.1341e-14 0
-7.03158e-15 -1.40527e-14 0
8.71799e-15 1.7396e-14 0
-1.07986e-14 -2.15142e-14 0
1.33631e-14 2.6582e-14 0
-1.65213e-14 -3.28124e-14 0
2.04064e-14 4.04649e-14 0
-2.51822e-14 -4.98553e-14 0
3.10462e-14 6.13678e-14 0
-3.82418e-14 -7.5468e-14 0
4.70595e-14 9.27234e-14 0
-5.78621e-14 -1.13817e-13 0
7.10719e-14 1.39586e-13 0
-8.72333e-14 -1.71027e-13 0
1.06948e-13 2.09371e-13 0
-1.31047e-13 -2.56061e-13 0
1.60352e-13 3.1292e-13 0
-1.96183e-13 -3.81999e-13 0
2.39552e-13 4.66029e-13 0
-2.9271e-13 -5.67841e-13 0
3.56548e-13 6.91649e-13 0
-4.35354e-13 -8.41083e-13 0
5.28618e-13 1.02304e-12 0
-6.45707e-13 -1.24131e-12 0
7.8034e-13 1.50834e-12 0
-9.55721e-13 -1.82516e-12 0
1.14585e-12 2.2173e-12 0
-1.41367e-12 -2.67278e-12 0
1.67031e-12 3.25162e-12 0
-2.0956e-12 -3.89567e-12 0
2.40675e-12 4.76183e-12 0
-3.13043e-12 -5.64334e-12 0
3.39638e-12 6.97813e-12 0
-4.76128e-12 -8.10054e-12 0
4.5964e-12 1.02744e-11 0
-7.50732e-12 -1.14475e-11 0
5.64987e-12 1.53182e-11 0
-1.2609e-11 -1.57013e-11 0
5.19349e-12 2.34555e-11 0
-2.32762e-11 -2.01962e-11 0
-5.35866e-22 -3.12107e-21 0
9.96597e-22 4.05064e-21 0
-1.88693e-21 -5.14458e-21 0
2.76504e-21 6.71119e-21 0
-3.72556e-21 -8.83547e-21 0
5.28496e-21 1.15194e-20 0
-7.10914e-21 -1.51437e-20 0
9.13305e-21 2.0044e-20 0
-1.23215e-20 -2.62511e-20 0
1.59114e-20 3.46238e-20 0
-2.11732e-20 -4.53211e-20 0
2.76777e-20 5.94461e-20 0
-3.61022e-20 -7.78915e-20 0
4.73213e-20 1.01815e-19 0
-6.16884e-20 -1.33041e-19 0
8.08632e-20 1.73404e-19 0
-1.05334e-19 -2.2598e-19 0
1.37233e-19 2.94088e-19 0
-1.78811e-19 -3.82204e-19 0
2.32148e-19 4.96367e-19 0
-3.01596e-19 -6.43664e-19 0
3.91262e-19 8.33838e-19 0
-5.06792e-19 -1.07902e-18 0
6.55808e-19 1.39473e-18 0
-8.47861e-19 -1.80069e-18 0
1.09458e-18 2.32237e-18 0
-1.41204e-18 -2.9916e-18 0
1.81917e-18 3.84954e-18 0
-2.34107e-18 -4.94803e-18 0
3.00972e-18 6.35279e-18 0
-3.86461e-18 -8.14759e-18 0
4.95723e-18 1.04378e-17 0
-6.35196e-18 -1.33571e-17 0
8.1299e-18 1.70743e-17 0
-1.03948e-17 -2.18022e-17 0
1.32757e-17 2.78095e-17 0
-1.6937e-17 -3.54336e-17 0
2.15853e-17 4.50995e-17 0
-2.74799e-17 -5.73408e-17 0
3.49474e-17 7.2827e-17 0
-4.4397e-17 -9.23976e-17 0
5.63427e-17 1.17104e-16 0
-7.14279e-17 -1.48259e-16 0
9.04574e-17 1.87508e-16 0
-1.14438e-16 -2.36899e-16 0
1.44627e-16 2.98988e-16 0
-1.82591e-16 -3.76961e-16 0
2.30285e-16 4.74779e-16 0
-2.9014e-16 -5.97365e-16 0
3.65182e-16 7.50836e-16 0
-4.59168e-16 -9.42774e-16 0
5.76762e-16 1.18258e-15 0
-7.23746e-16 -1.48189e-15 0
9.07283e-16 1.85509e-15 0
-1.13623e-15 -2.31995e-15 0
1.42155e-15 2.89841e-15 0
-1.77677e-15 -3.61753e-15 0
2.21858e-15 4.51061e-15 0
-2.76754e-15 -5.61865e-15 0
3.44898e-15 6.99205e-15 0
-4.29407e-15 -8.6927e-15 0
5.34108e-15 1.07965e-14 0
-6.63705e-15 -1.33966e-14 0
8.2396e-15 1.6607e-14 0
-1.02194e-14 -2.0567e-14 0
1.2663e-14 2.54472e-14 0
-1.56763e-14 -3.14556e-14 0
1.93882e-14 3.88462e-14 0
-2.39573e-14 -4.79282e-14 0
2.9575e-14 5.90789e-14 0
-3.64778e-14 -7.27558e-14 0
4.49482e-14 8.95176e-14 0
-5.53397e-14 -1.10038e-13 0
6.80638e-14 1.35143e-13 0
-8.36527e-14 -1.65819e-13 0
1.02695e-13 2.03286e-13 0
-1.26004e-13 -2.48976e-13 0
1.54387e-13 3.04697e-13 0
-1.8914e-13 -3.72496e-13 0
2.3126e-13 4.55092e-13 0
-2.82962e-13 -5.55315e-13 0
3.45131e-13 6.77372e-13 0
-4.21993e-13 -8.24918e-13 0
5.13073e-13 1.00483e-12 0
-6.27591e-13 -1.22101e-12 0
7.59438e-13 1.48582e-12 0
-9.31443e-13 -1.80057e-12 0
1.11818e-12 2.19059e-12 0
-1.38153e-12 -2.64459e-12 0
1.63441e-12 3.22185e-12 0
-2.05356e-12 -3.86615e-12 0
2.36152e-12 4.73191e-12 0
-3.07589e-12 -5.6178e-12 0
3.34212e-12 6.95389e-12 0
-4.69026e-12 -8.08995e-12 0
4.5375e-12 1.02658e-11 0
-7.41171e-12 -1.14736e-11 0
5.60183e-12 1.53398e-11 0
-1.24678e-11 -1.58068e-11 0
5.20154e-12 2.35226e-11 0
-2.30295e-11 -2.0469e-11 0
-2.03674e-22 -2.9555e-21 0
1.19209e-21 3.50934e-21 0
-1.78777e-21 -4.8229e-21 0
2.38584e-21 5.87008e-21 0
-3.65631e-21 -7.86519e-21 0
4.62863e-21 1.02095e-20 0
-6.0362e-21 -1.35763e-20 0
8.2813e-21 1.75888e-20 0
-1.05882e-20 -2.35786e-20 0
1.44527e-20 3.08316e-20 0
-1.83951e-20 -4.04554e-20 0
2.43627e-20 5.32304e-20 0
-3.20466e-20 -6.97753e-20 0
4.21286e-20 9.10728e-20 0
-5.53248e-20 -1.1901e-19 0
7.18869e-20 1.55691e-19 0
-9.38968e-20 -2.03028e-19 0
1.2282e-19 2.64459e-19 0
-1.59577e-19 -3.4429e-19 0
2.08155e-19 4.47406e-19 0
-2.70454e-19 -5.81123e-19 0
3.51125e-19 7.5378e-19 0
-4.55356e-19 -9.76469e-19 0
5.90156e-19 1.26415e-18 0
-7.63609e-19 -1.63412e-18 0
9.87549e-19 2.11006e-18 0
-1.27492e-18 -2.72187e-18 0
1.64468e-18 3.50648e-18 0
-2.11926e-18 -4.5129e-18 0
2.72745e-18 5.80152e-18 0
-3.507e-18 -7.44972e-18 0
4.50391e-18 9.55652e-18 0
-5.77806e-18 -1.22452e-17 0
7.40441e-18 1.56732e-17 0
-9.47831e-18 -2.00388e-17 0
1.21205e-17 2.55939e-17 0
-1.54826e-17 -3.26526e-17 0
1.97558e-17 4.1614e-17 0
-2.51821e-17 -5.29776e-17 0
3.20647e-17 6.73729e-17 0
-4.07854e-17 -8.55894e-17 0
5.18237e-17 1.08617e-16 0
-6.57806e-17 -1.37695e-16 0
8.34095e-17 1.74375e-16 0
-1.05653e-16 -2.20597e-16 0
1.33691e-16 2.78782e-16 0
-1.68996e-16 -3.5195e-16 0
2.13407e-16 4.43864e-16 0
-2.69213e-16 -5.5921e-16 0
3.39269e-16 7.03814e-16 0
-4.27123e-16 -8.8491e-16 0
5.37189e-16 1.11148e-15 0
-6.74941e-16 -1.39466e-15 0
8.47173e-16 1.74823e-15 0
-1.0623e-15 -2.18926e-15 0
1.33075e-15 2.73882e-15 0
-1.66539e-15 -3.42296e-15 0
2.08216e-15 4.27378e-15 0
-2.60068e-15 -5.33087e-15 0
3.24519e-15 6.64294e-15 0
-4.04553e-15 -8.26993e-15 0
5.0384e-15 1.02855e-14 0
-6.26898e-15 -1.278e-14 0
7.79269e-15 1.58643e-14 0
-9.67763e-15 -1.96742e-14 0
1.20071e-14 2.4376e-14 0
-1.48836e-14 -3.01731e-14 0
1.84317e-14 3.73139e-14 0
-2.2805e-14 -4.61015e-14 0
2.81891e-14 5.69062e-14 0
-3.48139e-14 -7.01777e-14 0
4.29539e-14 8.64661e-14 0
-5.29536e-14 -1.06436e-13 0
6.52144e-14 1.30902e-13 0
-8.02561e-14 -1.60841e-13 0
9.8654e-14 1.97461e-13 0
-1.21206e-13 -2.42182e-13 0
1.48704e-13 2.96803e-13 0
-1.82419e-13 -3.6336e-13 0
2.23336e-13 4.4456e-13 0
-2.73632e-13 -5.43237e-13 0
3.34189e-13 6.63585e-13 0
-4.09167e-13 -8.09286e-13 0
4.98127e-13 9.87203e-13 0
-6.10146e-13 -1.20132e-12 0
7.39279e-13 1.46395e-12 0
-9.07985e-13 -1.77666e-12 0
1.0914e-12 2.16457e-12 0
-1.35037e-12 -2.61709e-12 0
1.59955e-12 3.19274e-12 0
-2.01264e-12 -3.83725e-12 0
2.31745e-12 4.70255e-12 0
-3.02257e-12 -5.59271e-12 0
3.28908e-12 6.92998e-12 0
-4.62048e-12 -8.07946e-12 0
4.47974e-12 1.02572e-11 0
-7.3172e-12 -1.14992e-11 0
5.55461e-12 1.53609e-11 0
-1.23273e-11 -1.59111e-11 0
5.20974e-12 2.35888e-11 0
-2.27827e-11 -2.07394e-11 0
-3.16701e-22 -2.55446e-21 0
7.67862e-22 3.32243e-21 0
-1.28273e-21 -4.02604e-21 0
2.12613e-21 5.30526e-21 0
-2.71512e-21 -6.95984e-21 0
3.90608e-21 9.12212e-21 0
-5.4419e-21 -1.19743e-20 0
7.13216e-21 1.59081e-20 0
-9.56879e-21 -2.08495e-20 0
1.24388e-20 2.74753e-20 0
-1.6584e-20 -3.61011e-20 0
2.1864e-20 4.75016e-20 0
-2.84042e-20 -6.2336e-20 0
3.77468e-20 8.15689e-20 0
-4.90973e-20 -1.07101e-19 0
6.43219e-20 1.39696e-19 0
-8.41872e-20 -1.82607e-19 0
1.09581e-19 2.38267e-19 0
-1.4311e-19 -3.10526e-19 0
1.86513e-19 4.04205e-19 0
-2.42623e-19 -5.25549e-19 0
3.15625e-19 6.82486e-19 0
-4.09925e-19 -8.85523e-19 0
5.31734e-19 1.14729e-18 0
-6.89064e-19 -1.48499e-18 0
8.91797e-19 1.91993e-18 0
-1.15311e-18 -2.47932e-18 0
1.48913e-18 3.19852e-18 0
-1.92095e-18 -4.12156e-18 0
2.47552e-18 5.3051e-18 0
-3.1864e-18 -6.82144e-18 0
4.09711e-18 8.76108e-18 0
-5.26244e-18 -1.124e-17 0
6.75177e-18 1.44049e-17 0
-8.65357e-18 -1.84411e-17 0
1.10791e-17 2.35824e-17 0
-1.41693e-17 -3.01248e-17 0
1.81024e-17 3.84411e-17 0
-2.31023e-17 -4.90014e-17 0
2.94524e-17 6.23965e-17 0
-3.75085e-17 -7.93694e-17 0
4.77179e-17 1.00853e-16 0
-6.06433e-17 -1.28018e-16 0
7.69897e-17 1.62331e-16 0
-9.76414e-17 -2.05626e-16 0
1.23706e-16 2.602e-16 0
-1.56566e-16 -3.28919e-16 0
1.97955e-16 4.15361e-16 0
-2.50029e-16 -5.23984e-16 0
3.15484e-16 6.60344e-16 0
-3.97673e-16 -8.31346e-16 0
5.00771e-16 1.04558e-15 0
-6.2997e-16 -1.3137e-15 0
7.91713e-16 1.64892e-15 0
-9.94001e-16 -2.06763e-15 0
1.24675e-15 2.5901e-15 0
-1.56223e-15 -3.2414e-15 0
1.95563e-15 4.05249e-15 0
-2.44572e-15 -5.0616e-15 0
3.05568e-15 6.31585e-15 0
-3.81409e-15 -7.87329e-15 0
4.75618e-15 9.80534e-15 0
-5.92533e-15 -1.21998e-14 0
7.37487e-15 1.51646e-14 0
-9.17039e-15 -1.88319e-14 0
1.13923e-14 2.33642e-14 0
-1.41395e-14 -2.89599e-14 0
1.75326e-14 3.58625e-14 0
-2.17204e-14 -4.43688e-14 0
2.68829e-14 5.48424e-14 0
-3.32434e-14 -6.77255e-14 0
4.1069e-14 8.35595e-14 0
-5.06951e-14 -1.03e-13 0
6.25136e-14 1.26851e-13 0
-7.7032e-14 -1.5608e-13 0
9.48132e-14 1.91882e-13 0
-1.16639e-13 -2.35667e-13 0
1.43286e-13 2.89221e-13 0
-1.76003e-13 -3.54572e-13 0
2.1576e-13 4.34416e-13 0
-2.64699e-13 -5.31587e-13 0
3.23697e-13 6.50267e-13 0
-3.96848e-13 -7.94164e-13 0
4.83751e-13 9.70122e-13 0
-5.93337e-13 -1.18221e-12 0
7.19828e-13 1.4427e-12 0
-8.8531e-13 -1.75339e-12 0
1.06549e-12 2.13921e-12 0
-1.32014e-12 -2.59024e-12 0
1.56571e-12 3.16428e-12 0
-1.9728e-12 -3.80896e-12 0
2.27452e-12 4.67375e-12 0
-2.97043e-12 -5.56806e-12 0
3.23722e-12 6.90641e-12 0
-4.55189e-12 -8.06909e-12 0
4.42307e-12 1.02485e-11 0
-7.22373e-12 -1.15243e-11 0
5.50819e-12 1.53815e-11 0
-1.21875e-11 -1.60141e-11 0
5.21808e-12 2.36541e-11 0
-2.25357e-11 -2.10073e-11 0
-3.01794e-22 -2.13661e-21 0
6.79462e-22 2.71703e-21 0
-1.24795e-21 -3.58751e-21 0
1.92535e-21 4.68709e-21 0
-2.55974e-21 -6.19408e-21 0
3.54967e-21 8.08111e-21 0
-4.79638e-21 -1.06074e-20 0
6.38981e-21 1.41382e-20 0
-8.48696e-21 -1.85402e-20 0
1.12085e-20 2.45132e-20 0
-1.4693e-20 -3.23244e-20 0
1.93459e-20 4.25378e-20 0
-2.53206e-20 -5.58659e-20 0
3.33787e-20 7.33065e-20 0
-4.37447e-20 -9.61165e-20 0
5.74764e-20 1.25918e-19 0
-7.51694e-20 -1.6454e-19 0
9.8229e-20 2.15138e-19 0
-1.28395e-19 -2.80497e-19 0
1.67521e-19 3.65567e-19 0
-2.18314e-19 -4.76052e-19 0
2.84189e-19 6.18878e-19 0
-3.6943e-19 -8.03848e-19 0
4.79816e-19 1.04266e-18 0
-6.22452e-19 -1.35134e-18 0
8.06532e-19 1.74915e-18 0
-1.044e-18 -2.26195e-18 0
1.3498e-18 2.92144e-18 0
-1.74343e-18 -3.76927e-18 0
2.24922e-18 4.8578e-18 0
-2.89865e-18 -6.25355e-18 0
3.73159e-18 8.04178e-18 0
-4.79868e-18 -1.03302e-17 0
6.16416e-18 1.32554e-17 0
-7.90994e-18 -1.69902e-17 0
1.01389e-17 2.17542e-17 0
-1.29824e-17 -2.78246e-17 0
1.66057e-17 3.55508e-17 0
-2.12177e-17 -4.53742e-17 0
2.70821e-17 5.78508e-17 0
-3.45313e-17 -7.36806e-17 0
4.39834e-17 9.37433e-17 0
-5.59647e-17 -1.19145e-16 0
7.11359e-17 1.51271e-16 0
-9.03266e-17 -1.91862e-16 0
1.14577e-16 2.43094e-16 0
-1.45189e-16 -3.0769e-16 0
1.83793e-16 3.89053e-16 0
-2.32426e-16 -4.91429e-16 0
2.9363e-16 6.20116e-16 0
-3.70579e-16 -7.81713e-16 0
4.67225e-16 9.8443e-16 0
-5.8849e-16 -1.23848e-15 0
7.40495e-16 1.55654e-15 0
-9.30842e-16 -1.95434e-15 0
1.16897e-15 2.45138e-15 0
-1.46658e-15 -3.07182e-15 0
1.83817e-15 3.84553e-15 0
-2.30168e-15 -4.80944e-15 0
2.87929e-15 6.00913e-15 0
-3.5984e-15 -7.50085e-15 0
4.49281e-15 9.3539e-15 0
-5.60421e-15 -1.16536e-14 0
6.98393e-15 1.45049e-14 0
-8.69517e-15 -1.80368e-14 0
1.08155e-14 2.24077e-14 0
-1.34405e-14 -2.78116e-14 0
1.66869e-14 3.44868e-14 0
-2.06987e-14 -4.27243e-14 0
2.56508e-14 5.2881e-14 0
-3.176e-14 -6.53917e-14 0
3.92861e-14 8.07895e-14 0
-4.85561e-14 -9.97207e-14 0
5.9952e-14 1.2298e-13 0
-7.39699e-14 -1.51523e-13 0
9.11604e-14 1.86535e-13 0
-1.12289e-13 -2.29414e-13 0
1.38118e-13 2.81935e-13 0
-1.69875e-13 -3.46116e-13 0
2.08513e-13 4.24641e-13 0
-2.56141e-13 -5.20345e-13 0
3.1363e-13 6.37397e-13 0
-3.85012e-13 -7.79529e-13 0
4.69917e-13 9.53568e-13 0
-5.77136e-13 -1.16367e-12 0
7.01053e-13 1.42204e-12 0
-8.63383e-13 -1.73074e-12 0
1.04039e-12 2.11448e-12 0
-1.29081e-12 -2.56403e-12 0
1.53282e-12 3.13645e-12 0
-1.93399e-12 -3.78125e-12 0
2.23266e-12 4.64548e-12 0
-2.91942e-12 -5.54383e-12 0
3.18649e-12 6.88317e-12 0
-4.48446e-12 -8.05883e-12 0
4.36747e-12 1.02398e-11 0
-7.1313e-12 -1.15491e-11 0
5.46253e-12 1.54015e-11 0
-1.20483e-11 -1.6116e-11 0
5.22655e-12 2.37183e-11 0
-2.22886e-11 -2.12729e-11 0
-2.4369e-22 -1.96492e-21 0
6.21013e-22 2.46235e-21 0
-1.14519e-21 -3.19139e-21 0
1.58911e-21 4.12359e-21 0
-2.30675e-21 -5.41978e-21 0
3.0767e-21 7.11869e-21 0
-4.08189e-21 -9.53121e-21 0
5.63715e-21 1.26178e-20 0
-7.36214e-21 -1.66898e-20 0
9.84512e-21 2.20074e-20 0
-1.30133e-20 -2.89783e-20 0
1.70605e-20 3.82044e-20 0
-2.26297e-20 -5.0216e-20 0
2.97074e-20 6.59586e-20 0
-3.91548e-20 -8.66558e-20 0
5.14121e-20 1.13453e-19 0
-6.7325e-20 -1.48693e-19 0
8.82888e-20 1.94244e-19 0
-1.15436e-19 -2.53792e-19 0
1.50692e-19 3.3121e-19 0
-1.96657e-19 -4.31551e-19 0
2.56159e-19 5.61817e-19 0
-3.33452e-19 -7.30493e-19 0
4.33543e-19 9.49096e-19 0
-5.62989e-19 -1.23134e-18 0
7.3039e-19 1.59598e-18 0
-9.46443e-19 -2.06614e-18 0
1.22519e-18 2.67191e-18 0
-1.58427e-18 -3.4514e-18 0
2.04627e-18 4.4534e-18 0
-2.64023e-18 -5.74009e-18 0
3.40292e-18 7.39052e-18 0
-4.38101e-18 -9.50515e-18 0
5.63445e-18 1.22115e-17 0
-7.23837e-18 -1.56717e-17 0
9.28908e-18 2.00911e-17 0
-1.19082e-17 -2.5729e-17 0
1.52494e-17 3.29142e-17 0
-1.95077e-17 -4.20613e-17 0
2.49291e-17 5.36936e-17 0
-3.18235e-17 -6.84712e-17 0
4.05829e-17 8.72245e-17 0
-5.16989e-17 -1.10998e-16 0
6.5792e-17 1.41106e-16 0
-8.3641e-17 -1.79194e-16 0
1.06223e-16 2.2733e-16 0
-1.34764e-16 -2.88101e-16 0
1.70801e-16 3.64746e-16 0
-2.16255e-16 -4.61312e-16 0
2.7353e-16 5.82854e-16 0
-3.45628e-16 -7.35678e-16 0
4.36294e-16 9.27643e-16 0
-5.50196e-16 -1.16853e-15 0
6.93149e-16 1.47051e-15 0
-8.72384e-16 -1.84871e-15 0
1.09689e-15 2.32188e-15 0
-1.37783e-15 -2.91331e-15 0
1.72904e-15 3.65183e-15 0
-2.16768e-15 -4.57311e-15 0
2.71498e-15 5.7213e-15 0
-3.39722e-15 -7.15088e-15 0
4.24684e-15 8.92914e-15 0
-5.30393e-15 -1.1139e-14 0
6.61786e-15 1.38826e-14 0
-8.24959e-15 -1.72857e-14 0
1.0274e-14 2.15029e-14 0
-1.27834e-14 -2.67239e-14 0
1.58908e-14 3.3182e-14 0
-1.97357e-14 -4.11624e-14 0
2.44879e-14 5.10157e-14 0
-3.0358e-14 -6.31692e-14 0
3.75989e-14 7.81481e-14 0
-4.6529e-14 -9.65897e-14 0
5.75212e-14 1.19279e-13 0
-7.106e-14 -1.47161e-13 0
8.76843e-14 1.81409e-13 0
-1.08144e-13 -2.23412e-13 0
1.33187e-13 2.7493e-13 0
-1.64018e-13 -3.37975e-13 0
2.01578e-13 4.15218e-13 0
-2.47938e-13 -5.09492e-13 0
3.03968e-13 6.24955e-13 0
-3.73633e-13 -7.65363e-13 0
4.56599e-13 9.37521e-13 0
-5.61514e-13 -1.14567e-12 0
6.82923e-13 1.40196e-12 0
-8.42172e-13 -1.7087e-12 0
1.01608e-12 2.09037e-12 0
-1.26234e-12 -2.53844e-12 0
1.50086e-12 3.10923e-12 0
-1.89617e-12 -3.75411e-12 0
2.19185e-12 4.61774e-12 0
-2.8695e-12 -5.52001e-12 0
3.13686e-12 6.86025e-12 0
-4.41814e-12 -8.04868e-12 0
4.31291e-12 1.02312e-11 0
-7.03985e-12 -1.15734e-11 0
5.41763e-12 1.54211e-11 0
-1.19097e-11 -1.62166e-11 0
5.23515e-12 2.37817e-11 0
-2.20414e-11 -2.15362e-11 0
-2.13846e-22 -1.72499e-21 0
5.67131e-22 2.193e-21 0
-8.47233e-22 -2.80624e-21 0
1.38444e-21 3.69723e-21 0
-1.87314e-21 -4.91345e-21 0
2.5026e-21 6.50324e-21 0
-3.71787e-21 -8.51524e-21 0
4.74861e-21 1.13375e-20 0
-6.4425e-21 -1.50076e-20 0
8.69181e-21 1.97398e-20 0
-1.13045e-20 -2.61841e-20 0
1.53698e-20 3.43091e-20 0
-2.01663e-20 -4.52501e-20 0
2.67317e-20 5.94389e-20 0
-3.51785e-20 -7.80359e-20 0
4.60962e-20 1.02493e-19 0
-6.07729e-20 -1.34198e-19 0
7.94424e-20 1.75778e-19 0
-1.03864e-19 -2.29932e-19 0
1.35863e-19 3.00281e-19 0
-1.77221e-19 -3.91905e-19 0
2.31266e-19 5.10783e-19 0
-3.01223e-19 -6.65168e-19 0
3.92058e-19 8.65018e-19 0
-5.09807e-19 -1.12366e-18 0
6.62085e-19 1.45807e-18 0
-8.59167e-19 -1.88973e-18 0
1.11347e-18 2.44665e-18 0
-1.44143e-18 -3.16422e-18 0
1.86405e-18 4.08773e-18 0
-2.40789e-18 -5.2751e-18 0
3.10683e-18 6.79999e-18 0
-4.00456e-18 -8.75615e-18 0
5.15587e-18 1.12631e-17 0
-6.6312e-18 -1.44723e-17 0
8.51983e-18 1.85758e-17 0
-1.09344e-17 -2.38176e-17 0
1.40191e-17 3.05061e-17 0
-1.79547e-17 -3.90316e-17 0
2.29711e-17 4.98873e-17 0
-2.93585e-17 -6.36955e-17 0
3.74824e-17 8.1241e-17 0
-4.78053e-17 -1.03512e-16 0
6.09085e-17 1.31751e-16 0
-7.75233e-17 -1.67523e-16 0
9.85699e-17 2.12788e-16 0
-1.25202e-16 -2.70008e-16 0
1.5887e-16 3.42266e-16 0
-2.01387e-16 -4.33423e-16 0
2.55027e-16 5.48304e-16 0
-3.2263e-16 -6.9294e-16 0
4.07747e-16 8.74856e-16 0
-5.1481e-16 -1.10343e-15 0
6.49343e-16 1.39035e-15 0
-8.18229e-16 -1.75014e-15 0
1.03003e-15 2.20089e-15 0
-1.2954e-15 -2.76502e-15 0
1.62756e-15 3.47037e-15 0
-2.04291e-15 -4.35145e-15 0
2.5618e-15 5.45097e-15 0
-3.20943e-15 -6.82178e-15 0
4.01695e-15 8.52918e-15 0
-5.0229e-15 -1.06538e-14 0
6.27485e-15 1.32951e-14 0
-7.83153e-15 -1.65757e-14 0
9.76523e-15 2.06465e-14 0
-1.21652e-14 -2.56931e-14 0
1.51409e-14 3.19437e-14 0
-1.88275e-14 -3.96782e-14 0
2.33896e-14 4.92407e-14 0
-2.90322e-14 -6.10517e-14 0
3.60011e-14 7.56281e-14 0
-4.46068e-14 -9.35985e-14 0
5.5213e-14 1.15738e-13 0
-6.82933e-14 -1.42982e-13 0
8.43746e-14 1.76492e-13 0
-1.04192e-13 -2.17646e-13 0
1.28479e-13 2.68193e-13 0
-1.58419e-13 -3.30134e-13 0
1.94937e-13 4.0613e-13 0
-2.40073e-13 -4.99011e-13 0
2.9469e-13 6.12924e-13 0
-3.6269e-13 -7.51644e-13 0
4.43773e-13 9.21959e-13 0
-5.46444e-13 -1.12819e-12 0
6.65409e-13 1.38243e-12 0
-8.21644e-13 -1.68722e-12 0
9.9252e-13 2.06686e-12 0
-1.23469e-12 -2.51345e-12 0
1.46979e-12 3.08261e-12 0
-1.85931e-12 -3.72753e-12 0
2.15205e-12 4.5905e-12 0
-2.82065e-12 -5.49661e-12 0
3.0883e-12 6.83766e-12 0
-4.35291e-12 -8.03864e-12 0
4.25934e-12 1.02225e-11 0
-6.94938e-12 -1.15974e-11 0
5.37346e-12 1.54403e-11 0
-1.17718e-11 -1.63161e-11 0
5.24387e-12 2.38441e-11 0
-2.1794e-11 -2.17971e-11 0
-1.82641e-22 -1.54659e-21 0
5.05107e-22 1.9182e-21 0
-8.25764e-22 -2.52962e-21 0
1.29975e-21 3.29117e-21 0
-1.73489e-21 -4.36857e-21 0
2.543e-21 5.75108e-21 0
-3.29845e-21 -7.64629e-21 0
4.35887e-21 1.01673e-20 0
-5.99221e-21 -1.33669e-20 0
7.63749e-21 1.78159e-20 0
-1.06852e-20 -2.32979e-20 0
1.37207e-20 3.09134e-20 0
-1.82022e-20 -4.07026e-20 0
2.39865e-20 5.35874e-20 0
-3.13358e-20 -7.05808e-20 0
4.15514e-20 9.2579e-20 0
-5.42496e-20 -1.21603e-19 0
7.12047e-20 1.59399e-19 0
-9.3441e-20 -2.08627e-19 0
1.22345e-19 2.72847e-19 0
-1.60045e-19 -3.56437e-19 0
2.08948e-19 4.65175e-19 0
-2.72591e-19 -6.06286e-19 0
3.55135e-19 7.89379e-19 0
-4.62448e-19 -1.02655e-18 0
6.01386e-19 1.33352e-18 0
-7.80926e-19 -1.73053e-18 0
1.01326e-18 2.24313e-18 0
-1.31309e-18 -2.90447e-18 0
1.70003e-18 3.7566e-18 0
-2.19824e-18 -4.8536e-18 0
2.83977e-18 6.26401e-18 0
-3.66436e-18 -8.07571e-18 0
4.72315e-18 1.04003e-17 0
-6.08196e-18 -1.33793e-17 0
7.82271e-18 1.71937e-17 0
-1.00517e-17 -2.20717e-17 0
1.29017e-17 2.8304e-17 0
-1.65423e-17 -3.6258e-17 0
2.11884e-17 4.63983e-17 0
-2.71105e-17 -5.9313e-17 0
3.46529e-17 7.57429e-17 0
-4.42477e-17 -9.6624e-17 0
5.64408e-17 1.23135e-16 0
-7.19201e-17 -1.56758e-16 0
9.15516e-17 1.99359e-16 0
-1.16423e-16 -2.53278e-16 0
1.47901e-16 3.21455e-16 0
-1.87702e-16 -4.07572e-16 0
2.37974e-16 5.1624e-16 0
-3.0141e-16 -6.53228e-16 0
3.81376e-16 8.25743e-16 0
-4.82081e-16 -1.04278e-15 0
6.08777e-16 1.31557e-15 0
-7.68017e-16 -1.65809e-15 0
9.67965e-16 2.08774e-15 0
-1.21878e-15 -2.62617e-15 0
1.53311e-15 3.30026e-15 0
-1.92665e-15 -4.14338e-15 0
2.41889e-15 5.1969e-15 0
-3.034e-15 -6.51206e-15 0
3.80192e-15 8.15231e-15 0
-4.75971e-15 -1.0196e-14 0
5.95319e-15 1.27401e-14 0
-7.439e-15 -1.59041e-14 0
9.28694e-15 1.98354e-14 0
-1.15833e-14 -2.47154e-14 0
1.4434e-14 3.07678e-14 0
-1.79702e-14 -3.8267e-14 0
2.23517e-14 4.75509e-14 0
-2.77775e-14 -5.9033e-14 0
3.44872e-14 7.32225e-14 0
-4.27831e-14 -9.07394e-14 0
5.30202e-14 1.12349e-13 0
-6.56611e-14 -1.38977e-13 0
8.12218e-14 1.71774e-13 0
-1.00422e-13 -2.12106e-13 0
1.23981e-13 2.6171e-13 0
-1.53062e-13 -3.2258e-13 0
1.88576e-13 3.97362e-13 0
-2.32528e-13 -4.88886e-13 0
2.85777e-13 6.01285e-13 0
-3.52162e-13 -7.38355e-13 0
4.31416e-13 9.06864e-13 0
-5.31901e-13 -1.11121e-12 0
6.48484e-13 1.36343e-12 0
-8.01772e-13 -1.66631e-12 0
9.69684e-13 2.04392e-12 0
-1.20783e-12 -2.48903e-12 0
1.43958e-12 3.05655e-12 0
-1.82338e-12 -3.70149e-12 0
2.11321e-12 4.56377e-12 0
-2.77281e-12 -5.47361e-12 0
3.04076e-12 6.81537e-12 0
-4.28872e-12 -8.02872e-12 0
4.20674e-12 1.02138e-11 0
-6.85985e-12 -1.16209e-11 0
5.32999e-12 1.5459e-11 0
-1.16345e-11 -1.64144e-11 0
5.25269e-12 2.39057e-11 0
-2.15465e-11 -2.20558e-11 0
-1.60438e-22 -1.36036e-21 0
5.39023e-22 1.70487e-21 0
-7.72611e-22 -2.27402e-21 0
1.18026e-21 2.94411e-21 0
-1.72367e-21 -3.90197e-21 0
2.18965e-21 5.14257e-21 0
-2.99974e-21 -6.82989e-21 0
3.96765e-21 9.11539e-21 0
-5.26847e-21 -1.20285e-20 0
7.11879e-21 1.59241e-20 0
-9.36602e-21 -2.10606e-20 0
1.23128e-20 2.78485e-20 0
-1.62716e-20 -3.67343e-20 0
2.13264e-20 4.84939e-20 0
-2.84726e-20 -6.3705e-20 0
3.70109e-20 8.39504e-20 0
-4.8837e-20 -1.10231e-19 0
6.42036e-20 1.44631e-19 0
-8.42767e-20 -1.89565e-19 0
1.10425e-19 2.48226e-19 0
-1.4457e-19 -3.24652e-19 0
1.89147e-19 4.24027e-19 0
-2.47007e-19 -5.53311e-19 0
3.22385e-19 7.21166e-19 0
-4.19927e-19 -9.39038e-19 0
5.46687e-19 1.22127e-18 0
-7.10684e-19 -1.5867e-18 0
9.23227e-19 2.05903e-18 0
-1.19762e-18 -2.66923e-18 0
1.55205e-18 3.45644e-18 0
-2.00934e-18 -4.47096e-18 0
2.5984e-18 5.77703e-18 0
-3.35673e-18 -7.45656e-18 0
4.33169e-18 9.61406e-18 0
-5.58388e-18 -1.23826e-17 0
7.19032e-18 1.59315e-17 0
-9.24927e-18 -2.04757e-17 0
1.18851e-17 2.62885e-17 0
-1.52564e-17 -3.3716e-17 0
1.95632e-17 4.3197e-17 0
-2.50601e-17 -5.52861e-17 0
3.2068e-17 7.06854e-17 0
-4.09934e-17 -9.02806e-17 0
5.23494e-17 1.15189e-16 0
-6.67826e-17 -1.4682e-16 0
8.51088e-17 1.86945e-16 0
-1.08354e-16 -2.37796e-16 0
1.37809e-16 3.02172e-16 0
-1.75094e-16 -3.83589e-16 0
2.22246e-16 4.86456e-16 0
-2.81814e-16 -6.16293e-16 0
3.56993e-16 7.80008e-16 0
-4.51782e-16 -9.86239e-16 0
5.71178e-16 1.24577e-15 0
-7.21421e-16 -1.57205e-15 0
9.10297e-16 1.98186e-15 0
-1.14751e-15 -2.49607e-15 0
1.44514e-15 3.14067e-15 0
-1.81823e-15 -3.94792e-15 0
2.28545e-15 4.95793e-15 0
-2.87e-15 -6.22039e-15 0
3.60064e-15 7.79693e-15 0
-4.51305e-15 -9.76383e-15 0
5.65134e-15 1.22155e-14 0
-7.07018e-15 -1.52684e-14 0
8.83697e-15 1.90666e-14 0
-1.10352e-14 -2.37876e-14 0
1.37674e-14 2.96505e-14 0
-1.71607e-14 -3.69243e-14 0
2.13703e-14 4.59411e-14 0
-2.65896e-14 -5.71074e-14 0
3.30518e-14 7.09249e-14 0
-4.10517e-14 -8.80052e-14 0
5.09357e-14 1.09104e-13 0
-6.31557e-14 -1.35137e-13 0
7.82167e-14 1.67244e-13 0
-9.68236e-14 -2.0678e-13 0
1.19683e-13 2.55471e-13 0
-1.47935e-13 -3.15299e-13 0
1.8248e-13 3.889e-13 0
-2.25287e-13 -4.79102e-13 0
2.77211e-13 5.90022e-13 0
-3.42028e-13 -7.25479e-13 0
4.19505e-13 8.92217e-13 0
-5.17861e-13 -1.09472e-12 0
6.32123e-13 1.34495e-12 0
-7.82527e-13 -1.64593e-12 0
9.47539e-13 2.02154e-12 0
-1.18174e-12 -2.46518e-12 0
1.41019e-12 3.03106e-12 0
-1.78833e-12 -3.67597e-12 0
2.07531e-12 4.53752e-12 0
-2.72597e-12 -5.451e-12 0
2.99422e-12 6.79341e-12 0
-4.22556e-12 -8.01891e-12 0
4.15509e-12 1.02051e-11 0
-6.77124e-12 -1.16441e-11 0
5.2872e-12 1.54773e-11 0
-1.14977e-11 -1.65116e-11 0
5.26163e-12 2.39664e-11 0
-2.12988e-11 -2.23123e-11 0
-9.92197e-23 -1.26032e-21 0
4.14491e-22 1.55421e-21 0
-7.16318e-22 -2.10534e-21 0
1.01678e-21 2.64022e-21 0
-1.47965e-21 -3.58416e-21 0
1.95344e-21 4.6799e-21 0
-2.67952e-21 -6.28891e-21 0
3.54334e-21 8.17809e-21 0
-4.72107e-21 -1.08266e-20 0
6.2865e-21 1.43508e-20 0
-8.2926e-21 -1.90451e-20 0
1.09845e-20 2.51574e-20 0
-1.4595e-20 -3.31728e-20 0
1.92363e-20 4.38658e-20 0
-2.53752e-20 -5.76794e-20 0
3.34742e-20 7.60559e-20 0
-4.40685e-20 -1.00128e-19 0
5.80281e-20 1.31412e-19 0
-7.61689e-20 -1.7253e-19 0
9.99376e-20 2.2613e-19 0
-1.31061e-19 -2.95985e-19 0
1.71469e-19 3.87033e-19 0
-2.24188e-19 -5.05681e-19 0
2.92743e-19 6.59827e-19 0
-3.81798e-19 -8.59976e-19 0
4.97553e-19 1.11998e-18 0
-6.47524e-19 -1.45657e-18 0
8.41935e-19 1.8924e-18 0
-1.0935e-18 -2.45598e-18 0
1.4187e-18 3.18396e-18 0
-1.83869e-18 -4.12322e-18 0
2.38039e-18 5.33379e-18 0
-3.07844e-18 -6.89246e-18 0
3.97693e-18 8.89696e-18 0
-5.13212e-18 -1.14723e-17 0
6.61602e-18 1.47773e-17 0
-8.51985e-18 -1.90146e-17 0
1.09601e-17 2.44413e-17 0
-1.40844e-17 -3.13836e-17 0
1.80806e-17 4.02561e-17 0
-2.31866e-17 -5.15829e-17 0
2.97038e-17 6.60284e-17 0
-3.80136e-17 -8.44325e-17 0
4.85986e-17 1.07855e-16 0
-6.20674e-17 -1.37636e-16 0
7.91888e-17 1.7546e-16 0
-1.00931e-16 -2.23453e-16 0
1.28513e-16 2.84287e-16 0
-1.63469e-16 -3.61318e-16 0
2.07725e-16 4.58764e-16 0
-2.63701e-16 -5.81911e-16 0
3.34429e-16 7.37383e-16 0
-4.23709e-16 -9.33474e-16 0
5.36299e-16 1.18055e-15 0
-6.78144e-16 -1.49157e-15 0
8.56673e-16 1.88269e-15 0
-1.08116e-15 -2.37407e-15 0
1.36315e-15 2.99082e-15 0
-1.71705e-15 -3.76418e-15 0
2.16076e-15 4.73299e-15 0
-2.71656e-15 -5.94551e-15 0
3.4121e-15 7.46161e-15 0
-4.2817e-15 -9.3555e-15 0
5.3679e-15 1.17191e-14 0
-6.72341e-15 -1.46663e-14 0
8.41337e-15 1.83376e-14 0
-1.05185e-14 -2.29067e-14 0
1.31382e-14 2.85882e-14 0
-1.63957e-14 -3.56462e-14 0
2.04416e-14 4.44067e-14 0
-2.54642e-14 -5.52698e-14 0
3.16903e-14 6.87295e-14 0
-3.94072e-14 -8.53892e-14 0
4.89531e-14 1.05996e-13 0
-6.07697e-14 -1.31454e-13 0
7.5351e-14 1.62893e-13 0
-9.33876e-14 -2.01658e-13 0
1.15573e-13 2.49462e-13 0
-1.43027e-13 -3.08279e-13 0
1.76634e-13 3.8073e-13 0
-2.18334e-13 -4.69642e-13 0
2.68975e-13 5.79119e-13 0
-3.32271e-13 -7.12998e-13 0
4.0802e-13 8.78001e-13 0
-5.04302e-13 -1.07868e-12 0
6.16299e-13 1.32696e-12 0
-7.63882e-13 -1.62608e-12 0
9.26058e-13 1.9997e-12 0
-1.15637e-12 -2.44188e-12 0
1.38159e-12 3.0061e-12 0
-1.75414e-12 -3.65096e-12 0
2.03831e-12 4.51175e-12 0
-2.68008e-12 -5.42878e-12 0
2.94864e-12 6.77174e-12 0
-4.16338e-12 -8.00922e-12 0
4.10434e-12 1.01964e-11 0
-6.68352e-12 -1.1667e-11 0
5.24508e-12 1.54952e-11 0
-1.13615e-11 -1.66077e-11 0
5.27066e-12 2.40263e-11 0
-2.10511e-11 -2.25665e-11 0
-1.75507e-22 -1.12338e-21 0
3.78008e-22 1.39177e-21 0
-5.90084e-22 -1.83846e-21 0
9.25025e-22 2.42409e-21 0
-1.2571e-21 -3.16855e-21 0
1.7177e-21 4.25627e-21 0
-2.31919e-21 -5.55642e-21 0
3.13577e-21 7.33578e-21 0
-4.11413e-21 -9.78896e-21 0
5.51261e-21 1.29524e-20 0
-7.32697e-21 -1.72089e-20 0
9.8478e-21 2.27746e-20 0
-1.29747e-20 -3.01362e-20 0
1.72675e-20 3.97101e-20 0
-2.28832e-20 -5.24469e-20 0
3.018e-20 6.92975e-20 0
-3.98855e-20 -9.08396e-20 0
5.24551e-20 1.19677e-19 0
-6.89329e-20 -1.57135e-19 0
9.07928e-20 2.06103e-19 0
-1.18824e-19 -2.70064e-19 0
1.55684e-19 3.53735e-19 0
-2.03667e-19 -4.62544e-19 0
2.66118e-19 6.04375e-19 0
-3.476e-19 -7.88802e-19 0
4.53192e-19 1.02812e-18 0
-5.90614e-19 -1.33873e-18 0
7.68734e-19 1.74125e-18 0
-9.99518e-19 -2.26248e-18 0
1.29825e-18 2.93628e-18 0
-1.68435e-18 -3.80673e-18 0
2.18303e-18 4.93e-18 0
-2.82626e-18 -6.37784e-18 0
3.65504e-18 8.24211e-18 0
-4.72204e-18 -1.06401e-17 0
6.09383e-18 1.37212e-17 0
-7.85592e-18 -1.76761e-17 0
1.0117e-17 2.27467e-17 0
-1.30151e-17 -2.92415e-17 0
1.67262e-17 3.75516e-17 0
-2.14732e-17 -4.81734e-17 0
2.75391e-17 6.17361e-17 0
-3.52825e-17 -7.90357e-17 0
4.51568e-17 1.0108e-16 0
-5.77358e-17 -1.2914e-16 0
7.3744e-17 1.64824e-16 0
-9.40957e-17 -2.10155e-16 0
1.19943e-16 2.67683e-16 0
-1.52739e-16 -3.40619e-16 0
1.94307e-16 4.32995e-16 0
-2.46943e-16 -5.49878e-16 0
3.13529e-16 6.97623e-16 0
-3.97677e-16 -8.84195e-16 0
5.03917e-16 1.11957e-15 0
-6.37917e-16 -1.41622e-15 0
8.06768e-16 1.78973e-15 0
-1.01933e-15 -2.25957e-15 0
1.28666e-15 2.85002e-15 0
-1.62254e-15 -3.59132e-15 0
2.04416e-15 4.52113e-15 0
-2.57291e-15 -5.68629e-15 0
3.23536e-15 7.14499e-15 0
-4.06458e-15 -8.96947e-15 0
5.10155e-15 1.12493e-14 0
-6.39716e-15 -1.40956e-14 0
8.01434e-15 1.76458e-14 0
-1.00312e-14 -2.20697e-14 0
1.2544e-14 2.75777e-14 0
-1.56723e-14 -3.44289e-14 0
1.95625e-14 4.29435e-14 0
-2.43974e-14 -5.35152e-14 0
3.0398e-14 6.66306e-14 0
-3.78443e-14 -8.2885e-14 0
4.70665e-14 1.03016e-13 0
-5.84962e-14 -1.27919e-13 0
7.26168e-14 1.58712e-13 0
-9.0105e-14 -1.96731e-13 0
1.11641e-13 2.43674e-13 0
-1.38324e-13 -3.01508e-13 0
1.71028e-13 3.7284e-13 0
-2.11655e-13 -4.60495e-13 0
2.61053e-13 5.68562e-13 0
-3.22871e-13 -7.00897e-13 0
3.96941e-13 8.64199e-13 0
-4.91202e-13 -1.0631e-12 0
6.00991e-13 1.30945e-12 0
-7.45814e-13 -1.60672e-12 0
9.05215e-13 1.97838e-12 0
-1.13171e-12 -2.4191e-12 0
1.35376e-12 2.98168e-12 0
-1.72078e-12 -3.62646e-12 0
2.00219e-12 4.48644e-12 0
-2.63511e-12 -5.40693e-12 0
2.904e-12 6.75038e-12 0
-4.10216e-12 -7.99964e-12 0
4.05449e-12 1.01878e-11 0
-6.59667e-12 -1.16895e-11 0
5.20361e-12 1.55127e-11 0
-1.12259e-11 -1.67027e-11 0
5.27978e-12 2.40853e-11 0
-2.08032e-11 -2.28185e-11 0
-1.04798e-22 -9.83632e-22 0
3.14287e-22 1.25486e-21 0
-5.81337e-22 -1.60973e-21 0
8.03035e-22 2.13868e-21 0
-1.14613e-21 -2.8236e-21 0
1.61394e-21 3.70786e-21 0
-2.10234e-21 -4.93837e-21 0
2.93226e-21 6.59138e-21 0
-3.85727e-21 -8.76807e-21 0
5.1091e-21 1.16858e-20 0
-6.86525e-21 -1.54782e-20 0
8.94661e-21 2.05622e-20 0
-1.19546e-20 -2.71855e-20 0
1.57013e-20 3.60575e-20 0
-2.07756e-20 -4.76333e-20 0
2.73852e-20 6.27007e-20 0
-3.59783e-20 -8.28275e-20 0
4.75101e-20 1.08931e-19 0
-6.2416e-20 -1.4328e-19 0
8.19884e-20 1.88197e-19 0
-1.07685e-19 -2.47027e-19 0
1.41199e-19 3.23743e-19 0
-1.85048e-19 -4.23891e-19 0
2.42184e-19 5.54398e-19 0
-3.16578e-19 -7.24173e-19 0
4.13521e-19 9.45008e-19 0
-5.3939e-19 -1.23188e-18 0
7.02884e-19 1.60405e-18 0
-9.14869e-19 -2.08633e-18 0
1.18939e-18 2.7108e-18 0
-1.54482e-18 -3.51839e-18 0
2.00418e-18 4.56166e-18 0
-2.59742e-18 -5.90798e-18 0
3.36273e-18 7.64358e-18 0
-4.34883e-18 -9.87859e-18 0
5.61831e-18 1.27536e-17 0
-7.25069e-18 -1.6448e-17 0
9.34764e-18 2.11904e-17 0
-1.20386e-17 -2.72718e-17 0
1.54878e-17 3.50622e-17 0
-1.99051e-17 -4.50314e-17 0
2.55557e-17 5.77756e-17 0
-3.27768e-17 -7.40506e-17 0
4.19956e-17 9.48134e-17 0
-5.37524e-17 -1.21275e-16 0
6.87313e-17 1.54964e-16 0
-8.77958e-17 -1.97812e-16 0
1.12036e-16 2.52256e-16 0
-1.42826e-16 -3.21363e-16 0
1.81897e-16 4.08995e-16 0
-2.31427e-16 -5.20009e-16 0
2.94154e-16 6.60504e-16 0
-3.73517e-16 -8.38136e-16 0
4.73828e-16 1.0625e-15 0
-6.00496e-16 -1.34562e-15 0
7.60289e-16 1.70253e-15 0
-9.61678e-16 -2.15204e-15 0
1.21524e-15 2.71763e-15 0
-1.53421e-15 -3.42858e-15 0
1.93505e-15 4.32143e-15 0
-2.43832e-15 -5.44165e-15 0
3.06958e-15 6.84583e-15 0
-3.86067e-15 -8.60428e-15 0
4.8511e-15 1.08044e-14 0
-6.09001e-15 -1.35545e-14 0
7.63822e-15 1.69889e-14 0
-9.57134e-15 -2.12741e-14 0
1.19826e-14 2.6616e-14 0
-1.4988e-14 -3.32688e-14 0
1.87297e-14 4.15473e-14 0
-2.33855e-14 -5.18389e-14 0
2.91707e-14 6.4623e-14 0
-3.63583e-14 -8.04868e-14 0
4.52703e-14 1.00159e-13 0
-5.63289e-14 -1.24526e-13 0
7.0007e-14 1.54694e-13 0
-8.69675e-14 -1.91988e-13 0
1.07878e-13 2.38096e-13 0
-1.33818e-13 -2.94974e-13 0
1.65647e-13 3.65216e-13 0
-2.05237e-13 -4.51646e-13 0
2.5343e-13 5.58336e-13 0
-3.13813e-13 -6.8916e-13 0
3.86251e-13 8.50796e-13 0
-4.78541e-13 -1.04795e-12 0
5.86177e-13 1.29241e-12 0
-7.28297e-13 -1.58786e-12 0
8.84983e-13 1.95757e-12 0
-1.10772e-12 -2.39683e-12 0
1.32666e-12 2.95776e-12 0
-1.68821e-12 -3.60244e-12 0
1.96691e-12 4.46159e-12 0
-2.59104e-12 -5.38545e-12 0
2.86025e-12 6.72932e-12 0
-4.04188e-12 -7.99017e-12 0
4.00549e-12 1.01791e-11 0
-6.51067e-12 -1.17116e-11 0
5.16277e-12 1.55298e-11 0
-1.10909e-11 -1.67967e-11 0
5.28899e-12 2.41435e-11 0
-2.05552e-11 -2.30684e-11 0
-1.07158e-22 -8.67865e-22 0
3.08911e-22 1.10109e-21 0
-4.32509e-22 -1.44731e-21 0
7.09938e-22 1.90146e-21 0
-1.04052e-21 -2.48867e-21 0
1.37793e-21 3.36633e-21 0
-1.92543e-21 -4.47181e-21 0
2.54725e-21 5.95123e-21 0
-3.36444e-21 -8.02071e-21 0
4.57443e-21 1.05413e-20 0
-6.02403e-21 -1.41173e-20 0
8.02857e-21 1.86782e-20 0
-1.06249e-20 -2.47531e-20 0
1.41314e-20 3.27098e-20 0
-1.86494e-20 -4.32504e-20 0
2.45703e-20 5.71808e-20 0
-3.26294e-20 -7.53978e-20 0
4.29026e-20 9.93877e-20 0
-5.65301e-20 -1.30844e-19 0
7.44369e-20 1.72095e-19 0
-9.78443e-20 -2.26098e-19 0
1.28493e-19 2.9664e-19 0
-1.68484e-19 -3.88822e-19 0
2.20783e-19 5.0899e-19 0
-2.88919e-19 -6.65683e-19 0
3.77689e-19 8.69618e-19 0
-4.93145e-19 -1.1348e-18 0
6.43191e-19 1.47926e-18 0
-8.38015e-19 -1.92622e-18 0
1.09077e-18 2.50546e-18 0
-1.41821e-18 -3.25541e-18 0
1.84185e-18 4.22542e-18 0
-2.3896e-18 -5.47856e-18 0
3.09686e-18 7.09581e-18 0
-4.00932e-18 -9.18078e-18 0
5.18514e-18 1.18658e-17 0
-6.69876e-18 -1.53202e-17 0
8.64525e-18 1.97596e-17 0
-1.11455e-17 -2.54591e-17 0
1.43544e-17 3.27684e-17 0
-1.8468e-17 -4.21329e-17 0
2.37359e-17 5.4118e-17 0
-3.04755e-17 -6.94414e-17 0
3.90889e-17 8.90129e-17 0
-5.0086e-17 -1.13985e-16 0
6.41123e-17 1.45816e-16 0
-8.1984e-17 -1.86348e-16 0
1.04733e-16 2.37909e-16 0
-1.33661e-16 -3.03435e-16 0
1.7041e-16 3.86624e-16 0
-2.17048e-16 -4.92134e-16 0
2.76179e-16 6.25823e-16 0
-3.51075e-16 -7.95051e-16 0
4.45848e-16 1.00906e-15 0
-5.65656e-16 -1.27943e-15 0
7.16967e-16 1.62068e-15 0
-9.0788e-16 -2.05098e-15 0
1.14853e-15 2.59305e-15 0
-1.45159e-15 -3.27528e-15 0
1.83287e-15 4.13308e-15 0
-2.31213e-15 -5.21064e-15 0
2.91396e-15 6.56299e-15 0
-3.66903e-15 -8.25861e-15 0
4.61545e-15 1.03827e-14 0
-5.80066e-15 -1.3041e-14 0
7.28346e-15 1.6365e-14 0
-9.13705e-15 -2.05173e-14 0
1.14517e-14 2.57001e-14 0
-1.43402e-14 -3.21627e-14 0
1.79403e-14 4.02146e-14 0
-2.24253e-14 -5.02368e-14 0
2.80046e-14 6.27018e-14 0
-3.49444e-14 -7.8189e-14 0
4.35593e-14 9.74184e-14 0
-5.42617e-14 -1.21266e-13 0
6.75146e-14 1.50829e-13 0
-8.39672e-14 -1.87421e-13 0
1.04275e-13 2.32718e-13 0
-1.29497e-13 -2.88667e-13 0
1.60482e-13 3.57849e-13 0
-1.99067e-13 -4.43083e-13 0
2.46092e-13 5.48428e-13 0
-3.0508e-13 -6.77775e-13 0
3.75931e-13 8.37777e-13 0
-4.66301e-13 -1.03321e-12 0
5.71835e-13 1.2758e-12 0
-7.11311e-13 -1.56946e-12 0
8.65338e-13 1.93724e-12 0
-1.08438e-12 -2.37507e-12 0
1.30026e-12 2.93435e-12 0
-1.65641e-12 -3.57889e-12 0
1.93244e-12 4.43717e-12 0
-2.54784e-12 -5.36433e-12 0
2.81738e-12 6.70855e-12 0
-3.98249e-12 -7.98082e-12 0
3.95733e-12 1.01705e-11 0
-6.4255e-12 -1.17335e-11 0
5.12253e-12 1.55465e-11 0
-1.09563e-11 -1.68896e-11 0
5.29828e-12 2.42009e-11 0
-2.03071e-11 -2.33161e-11 0
-8.76408e-23 -7.92106e-22 0
1.76893e-22 1.01136e-21 0
-4.61129e-22 -1.28514e-21 0
6.8416e-22 1.68746e-21 0
-8.77221e-22 -2.30037e-21 0
1.28138e-21 3.03208e-21 0
-1.60803e-21 -4.10029e-21 0
2.21907e-21 5.43032e-21 0
-3.04488e-21 -7.19868e-21 0
4.04042e-21 9.62011e-21 0
-5.48656e-21 -1.2735e-20 0
7.30442e-21 1.68935e-20 0
-9.5406e-21 -2.24813e-20 0
1.26433e-20 2.97994e-20 0
-1.67718e-20 -3.94375e-20 0
2.24129e-20 5.20814e-20 0
-2.93936e-20 -6.88368e-20 0
3.8821e-20 9.08628e-20 0
-5.1331e-20 -1.19707e-19 0
6.75384e-20 1.57624e-19 0
-8.90472e-20 -2.07157e-19 0
1.16947e-19 2.72142e-19 0
-1.53562e-19 -3.5704e-19 0
2.01463e-19 4.67923e-19 0
-2.63877e-19 -6.12616e-19 0
3.45291e-19 8.01142e-19 0
-4.51321e-19 -1.04659e-18 0
5.89284e-19 1.36573e-18 0
-7.68704e-19 -1.78023e-18 0
1.00149e-18 2.31812e-18 0
-1.30333e-18 -3.01533e-18 0
1.69455e-18 3.91795e-18 0
-2.20056e-18 -5.08548e-18 0
2.855e-18 6.59385e-18 0
-3.69992e-18 -8.54068e-18 0
4.78994e-18 1.10508e-17 0
-6.19466e-18 -1.42836e-17 0
8.00271e-18 1.84431e-17 0
-1.03285e-17 -2.37889e-17 0
1.33158e-17 3.06528e-17 0
-1.71498e-17 -3.94565e-17 0
2.20651e-17 5.07368e-17 0
-2.83601e-17 -6.51756e-17 0
3.64143e-17 8.36385e-17 0
-4.67083e-17 -1.07223e-16 0
5.98521e-17 1.3732e-16 0
-7.66179e-17 -1.7569e-16 0
9.79821e-17 2.24556e-16 0
-1.25179e-16 -2.86729e-16 0
1.59767e-16 3.65753e-16 0
-2.03711e-16 -4.66099e-16 0
2.59488e-16 5.93394e-16 0
-3.30214e-16 -7.54718e-16 0
4.19808e-16 9.58968e-16 0
-5.33196e-16 -1.21732e-15 0
6.76556e-16 1.54379e-15 0
-8.5764e-16 -1.95593e-15 0
1.08615e-15 2.47575e-15 0
-1.37425e-15 -3.13075e-15 0
1.73712e-15 3.95531e-15 0
-2.19374e-15 -4.99235e-15 0
2.76779e-15 6.29541e-15 0
-3.48881e-15 -7.93119e-15 0
4.39358e-15 9.9828e-15 0
-5.5279e-15 -1.25535e-14 0
6.94865e-15 1.57718e-14 0
-8.72668e-15 -1.97971e-14 0
1.09495e-14 2.48274e-14 0
-1.37265e-14 -3.11075e-14 0
1.71918e-14 3.89416e-14 0
-2.15136e-14 -4.87048e-14 0
2.6896e-14 6.08624e-14 0
-3.35987e-14 -7.59864e-14 0
4.19287e-14 9.4788e-14 0
-5.22891e-14 -1.18134e-13 0
6.51332e-14 1.47111e-13 0
-8.10968e-14 -1.83022e-13 0
1.00824e-13 2.27532e-13 0
-1.25353e-13 -2.82577e-13 0
1.55521e-13 3.50725e-13 0
-1.93133e-13 -4.34794e-13 0
2.39024e-13 5.38825e-13 0
-2.96659e-13 -6.66727e-13 0
3.65965e-13 8.25127e-13 0
-4.54462e-13 -1.01887e-12 0
5.57946e-13 1.25963e-12 0
-6.94832e-13 -1.55152e-12 0
8.46258e-13 1.9174e-12 0
-1.06167e-12 -2.35378e-12 0
1.27455e-12 2.91141e-12 0
-1.62535e-12 -3.55581e-12 0
1.89875e-12 4.4132e-12 0
-2.50547e-12 -5.34357e-12 0
2.77535e-12 6.68807e-12 0
-3.92399e-12 -7.97158e-12 0
3.90997e-12 1.01619e-11 0
-6.34112e-12 -1.1755e-11 0
5.08289e-12 1.55629e-11 0
-1.08223e-11 -1.69815e-11 0
5.30764e-12 2.42576e-11 0
-2.00588e-11 -2.35617e-11 0
-1.22691e-22 -6.74301e-22 0
1.93636e-22 9.14207e-22 0
-4.50407e-22 -1.1454e-21 0
5.25435e-22 1.57561e-21 0
-8.21014e-22 -2.07063e-21 0
1.12132e-21 2.75318e-21 0
-1.43028e-21 -3.7046e-21 0
2.0432e-21 4.91351e-21 0
-2.67927e-21 -6.55848e-21 0
3.61163e-21 8.72372e-21 0
-4.80737e-21 -1.16102e-20 0
6.32102e-21 1.54943e-20 0
-8.50093e-21 -2.05124e-20 0
1.13541e-20 2.71511e-20 0
-1.51436e-20 -3.59844e-20 0
2.00434e-20 4.76335e-20 0
-2.65922e-20 -6.29743e-20 0
3.52621e-20 8.31127e-20 0
-4.657e-20 -1.09662e-19 0
6.14063e-20 1.44452e-19 0
-8.10498e-20 -1.90109e-19 0
1.06551e-19 2.50013e-19 0
-1.40265e-19 -3.28204e-19 0
1.84041e-19 4.30656e-19 0
-2.41376e-19 -5.64385e-19 0
3.16254e-19 7.38815e-19 0
-4.13651e-19 -9.66253e-19 0
5.40665e-19 1.26219e-18 0
-7.05857e-19 -1.64709e-18 0
9.20399e-19 2.14706e-18 0
-1.19906e-18 -2.79578e-18 0
1.56033e-18 3.63667e-18 0
-2.02852e-18 -4.72537e-18 0
2.63435e-18 6.13362e-18 0
-3.41752e-18 -7.95317e-18 0
4.42898e-18 1.03016e-17 0
-5.73366e-18 -1.33298e-17 0
7.41515e-18 1.72301e-17 0
-9.57975e-18 -2.22486e-17 0
1.23634e-17 2.86995e-17 0
-1.59398e-17 -3.69827e-17 0
2.05295e-17 4.76081e-17 0
-2.64138e-17 -6.12241e-17 0
3.39505e-17 7.86546e-17 0
-4.35935e-17 -1.00946e-16 0
5.59194e-17 1.29425e-16 0
-7.16587e-17 -1.65772e-16 0
9.17365e-17 2.12117e-16 0
-1.17324e-16 -2.71149e-16 0
1.49899e-16 3.46268e-16 0
-1.91332e-16 -4.41764e-16 0
2.43978e-16 5.63048e-16 0
-3.10806e-16 -7.16931e-16 0
3.95556e-16 9.11988e-16 0
-5.02929e-16 -1.159e-15 0
6.38834e-16 1.4715e-15 0
-8.10689e-16 -1.86648e-15 0
1.0278e-15 2.36523e-15 0
-1.30181e-15 -2.99442e-15 0
1.64733e-15 3.78742e-15 0
-2.08259e-15 -4.78595e-15 0
2.6304e-15 6.04211e-15 0
-3.31923e-15 -7.62089e-15 0
4.18455e-15 9.60336e-15 0
-5.27064e-15 -1.20904e-14 0
6.63248e-15 1.52077e-14 0
-8.33871e-15 -1.91114e-14 0
1.04742e-14 2.39954e-14 0
-1.3145e-14 -3.01005e-14 0
1.64815e-14 3.77253e-14 0
-2.06474e-14 -4.72391e-14 0
2.58415e-14 5.91006e-14 0
-3.23171e-14 -7.38741e-14 0
4.03739e-14 9.22625e-14 0
-5.04058e-14 -1.15123e-13 0
6.28568e-14 1.43532e-13 0
-7.83496e-14 -1.78784e-13 0
9.75165e-14 2.22528e-13 0
-1.21376e-13 -2.76695e-13 0
1.50754e-13 3.43837e-13 0
-1.87424e-13 -4.26768e-13 0
2.32216e-13 5.29516e-13 0
-2.88534e-13 -6.56002e-13 0
3.56338e-13 8.12834e-13 0
-4.43008e-13 -1.00492e-12 0
5.44491e-13 1.24387e-12 0
-6.78841e-13 -1.53401e-12 0
8.27721e-13 1.89801e-12 0
-1.03956e-12 -2.33297e-12 0
1.24949e-12 2.88895e-12 0
-1.59501e-12 -3.53317e-12 0
1.86583e-12 4.38964e-12 0
-2.46391e-12 -5.32315e-12 0
2.73415e-12 6.66788e-12 0
-3.86634e-12 -7.96246e-12 0
3.86341e-12 1.01533e-11 0
-6.25754e-12 -1.17762e-11 0
5.04383e-12 1.55789e-11 0
-1.06888e-11 -1.70724e-11 0
5.31707e-12 2.43135e-11 0
-1.98105e-11 -2.38052e-11 0
3.41904e-23 -7.69109e-22 0
3.37717e-22 7.17249e-22 0
-1.86184e-22 -1.11269e-21 0
5.79595e-22 1.43047e-21 0
-6.93501e-22 -1.8967e-21 0
9.74047e-22 2.57545e-21 0
-1.45074e-21 -3.26473e-21 0
1.64195e-21 4.44589e-21 0
-2.47623e-21 -5.94145e-21 0
3.11356e-21 7.95453e-21 0
-4.22692e-21 -1.05954e-20 0
5.77932e-21 1.40082e-20 0
-7.65266e-21 -1.87435e-20 0
1.03759e-20 2.47438e-20 0
-1.35525e-20 -3.29614e-20 0
1.81732e-20 4.36079e-20 0
-2.41996e-20 -5.76216e-20 0
3.19568e-20 7.61869e-20 0
-4.24114e-20 -1.00457e-19 0
5.60018e-20 1.32541e-19 0
-7.38509e-20 -1.74627e-19 0
9.75186e-20 2.29694e-19 0
-1.28013e-19 -3.0217e-19 0
1.68487e-19 3.9675e-19 0
-2.21044e-19 -5.20544e-19 0
2.89696e-19 6.82287e-19 0
-3.79591e-19 -8.93071e-19 0
4.96404e-19 1.16779e-18 0
-6.48659e-19 -1.52554e-18 0
8.46735e-19 1.99071e-18 0
-1.1041e-18 -2.5949e-18 0
1.43841e-18 3.37885e-18 0
-1.8717e-18 -4.39518e-18 0
2.43309e-18 5.71101e-18 0
-3.15981e-18 -7.41301e-18 0
4.09891e-18 9.61238e-18 0
-5.31207e-18 -1.24511e-17 0
6.87668e-18 1.61116e-17 0
-8.89324e-18 -2.08268e-17 0
1.14892e-17 2.68945e-17 0
-1.48277e-17 -3.46942e-17 0
1.91167e-17 4.47107e-17 0
-2.46214e-17 -5.75604e-17 0
3.1679e-17 7.40286e-17 0
-4.0719e-17 -9.51127e-17 0
5.22858e-17 1.2208e-16 0
-6.70718e-17 -1.56536e-16 0
8.59536e-17 2.00519e-16 0
-1.10042e-16 -2.56607e-16 0
1.40743e-16 3.2806e-16 0
-1.79832e-16 -4.19001e-16 0
2.29553e-16 5.34629e-16 0
-2.92737e-16 -6.81504e-16 0
3.72951e-16 8.67893e-16 0
-4.74687e-16 -1.1042e-15 0
6.03596e-16 1.4035e-15 0
-7.66781e-16 -1.78223e-15 0
9.73158e-16 2.26101e-15 0
-1.23391e-15 -2.86572e-15 0
1.56307e-15 3.62876e-15 0
-1.97817e-15 -4.59067e-15 0
2.50118e-15 5.80218e-15 0
-3.15954e-15 -7.32664e-15 0
3.9875e-15 9.24314e-15 0
-5.02783e-15 -1.16503e-14 0
6.33374e-15 1.4671e-14 0
-7.97169e-15 -1.84581e-14 0
1.0024e-14 2.3202e-14 0
-1.25936e-14 -2.91388e-14 0
1.58072e-14 3.65624e-14 0
-1.98241e-14 -4.58362e-14 0
2.48381e-14 5.74123e-14 0
-3.1096e-14 -7.18477e-14 0
3.88906e-14 8.98366e-14 0
-4.86071e-14 -1.12228e-13 0
6.06798e-14 1.40087e-13 0
-7.5719e-14 -1.74698e-13 0
9.43454e-14 2.17699e-13 0
-1.17559e-13 -2.71011e-13 0
1.46172e-13 3.37173e-13 0
-1.81928e-13 -4.18995e-13 0
2.25655e-13 5.20488e-13 0
-2.80693e-13 -6.4559e-13 0
3.47035e-13 8.00882e-13 0
-4.31922e-13 -9.91339e-13 0
5.31452e-13 1.22852e-12 0
-6.63319e-13 -1.51694e-12 0
8.09706e-13 1.87907e-12 0
-1.01802e-12 -2.31261e-12 0
1.22506e-12 2.86695e-12 0
-1.56536e-12 -3.51097e-12 0
1.83363e-12 4.3665e-12 0
-2.42314e-12 -5.30307e-12 0
2.69374e-12 6.64797e-12 0
-3.80951e-12 -7.95345e-12 0
3.81761e-12 1.01448e-11 0
-6.17471e-12 -1.17971e-11 0
5.00532e-12 1.55946e-11 0
-1.05559e-11 -1.71623e-11 0
5.32656e-12 2.43686e-11 0
-1.9562e-11 -2.40466e-11 0
-2.44527e-22 -3.45743e-22 0
2.39201e-23 8.60457e-22 0
-4.39307e-22 -9.05061e-22 0
4.36141e-22 1.28159e-21 0
-6.66722e-22 -1.6825e-21 0
9.12553e-22 2.23745e-21 0
-1.12606e-21 -3.0432e-21 0
1.74084e-21 4.02053e-21 0
-2.16072e-21 -5.40717e-21 0
3.04884e-21 7.18276e-21 0
-4.08744e-21 -9.53893e-21 0
5.34938e-21 1.28081e-20 0
-7.13335e-21 -1.69692e-20 0
9.38209e-21 2.26473e-20 0
-1.26579e-20 -2.99787e-20 0
1.67224e-20 3.97501e-20 0
-2.20721e-20 -5.26769e-20 0
2.93849e-20 6.96857e-20 0
-3.87759e-20 -9.21603e-20 0
5.12487e-20 1.21706e-19 0
-6.74896e-20 -1.60535e-19 0
8.88964e-20 2.11582e-19 0
-1.17209e-19 -2.78389e-19 0
1.54093e-19 3.66055e-19 0
-2.02502e-19 -4.80695e-19 0
2.6571e-19 6.30552e-19 0
-3.4817e-19 -8.26327e-19 0
4.56051e-19 1.08172e-18 0
-5.9651e-19 -1.41452e-18 0
7.79704e-19 1.84761e-18 0
-1.01781e-18 -2.41087e-18 0
1.32709e-18 3.14259e-18 0
-1.72894e-18 -4.09189e-18 0
2.24956e-18 5.32261e-18 0
-2.92429e-18 -6.91614e-18 0
3.79731e-18 8.97746e-18 0
-4.92576e-18 -1.1641e-17 0
6.38321e-18 1.50793e-17 0
-8.26311e-18 -1.95133e-17 0
1.06858e-17 2.52248e-17 0
-1.38046e-17 -3.25753e-17 0
1.78156e-17 4.20249e-17 0
-2.29691e-17 -5.41607e-17 0
2.95831e-17 6.97312e-17 0
-3.80635e-17 -8.96879e-17 0
4.8926e-17 1.15241e-16 0
-6.28258e-17 -1.47928e-16 0
8.05949e-17 1.89698e-16 0
-1.03287e-16 -2.43024e-16 0
1.32239e-16 3.11035e-16 0
-1.6914e-16 -3.9769e-16 0
2.16127e-16 5.07995e-16 0
-2.75901e-16 -6.48266e-16 0
3.51865e-16 8.26475e-16 0
-4.48314e-16 -1.05266e-15 0
5.70655e-16 1.33948e-15 0
-7.25689e-16 -1.70283e-15 0
9.21968e-16 2.16269e-15 0
-1.17023e-15 -2.74417e-15 0
1.48395e-15 3.47872e-15 0
-1.88001e-15 -4.40581e-15 0
2.37957e-15 5.57479e-15 0
-3.00909e-15 -7.04744e-15 0
3.80163e-15 8.90095e-15 0
-4.79854e-15 -1.12317e-14 0
6.0513e-15 1.41599e-14 0
-7.62429e-15 -1.78353e-14 0
9.59734e-15 2.24447e-14 0
-1.20704e-14 -2.82201e-14 0
1.51667e-14 3.54501e-14 0
-1.90412e-14 -4.44928e-14 0
2.38827e-14 5.57938e-14 0
-2.9932e-14 -6.99027e-14 0
3.7475e-14 8.75057e-14 0
-4.68882e-14 -1.09442e-13 0
5.8597e-14 1.36769e-13 0
-7.3199e-14 -1.70758e-13 0
9.13038e-14 2.13037e-13 0
-1.13892e-13 -2.65517e-13 0
1.41766e-13 3.30724e-13 0
-1.76637e-13 -4.11463e-13 0
2.19329e-13 5.11731e-13 0
-2.73122e-13 -6.35478e-13 0
3.38041e-13 7.89262e-13 0
-4.21189e-13 -9.78121e-13 0
5.18813e-13 1.21355e-12 0
-6.48247e-13 -1.50027e-12 0
7.92192e-13 1.86056e-12 0
-9.9705e-13 -2.29269e-12 0
1.20125e-12 2.8454e-12 0
-1.53638e-12 -3.4892e-12 0
1.80215e-12 4.34377e-12 0
-2.38313e-12 -5.28333e-12 0
2.6541e-12 6.62833e-12 0
-3.75349e-12 -7.94456e-12 0
3.77255e-12 1.01363e-11 0
-6.09263e-12 -1.18177e-11 0
4.96736e-12 1.56099e-11 0
-1.04234e-11 -1.72512e-11 0
5.33611e-12 2.4423e-11 0
-1.93134e-11 -2.4286e-11 0
2.27163e-22 -9.09932e-22 0
2.94303e-22 4.98444e-22 0
-1.9721e-22 -9.46363e-22 0
3.49746e-22 1.13937e-21 0
-6.21363e-22 -1.51902e-21 0
5.68781e-22 2.10397e-21 0
-1.29138e-21 -2.69867e-21 0
1.38224e-21 3.73406e-21 0
-2.11619e-21 -4.86579e-21 0
2.81745e-21 6.51871e-21 0
-3.517e-21 -8.86185e-21 0
4.85447e-21 1.15975e-20 0
-6.31123e-21 -1.55915e-20 0
8.71536e-21 2.0576e-20 0
-1.14379e-20 -2.74246e-20 0
1.50075e-20 3.63886e-20 0
-2.03131e-20 -4.82419e-20 0
2.66115e-20 6.39437e-20 0
-3.53139e-20 -8.47487e-20 0
4.65182e-20 1.11974e-19 0
-6.14802e-20 -1.47831e-19 0
8.15208e-20 1.94906e-19 0
-1.07217e-19 -2.56868e-19 0
1.41209e-19 3.37998e-19 0
-1.85648e-19 -4.44382e-19 0
2.43657e-19 5.83593e-19 0
-3.20136e-19 -7.65383e-19 0
4.19479e-19 1.00293e-18 0
-5.49589e-19 -1.31269e-18 0
7.18835e-19 1.71642e-18 0
-9.38947e-19 -2.24219e-18 0
1.22598e-18 2.92545e-18 0
-1.59814e-18 -3.81337e-18 0
2.08176e-18 4.96532e-18 0
-2.70875e-18 -6.45852e-18 0
3.52078e-18 8.39222e-18 0
-4.57184e-18 -1.08934e-17 0
5.93001e-18 1.41258e-17 0
-7.68408e-18 -1.82983e-17 0
9.94687e-18 2.36793e-17 0
-1.28627e-17 -3.06115e-17 0
1.6617e-17 3.95329e-17 0
-2.14446e-17 -5.10033e-17 0
2.76474e-17 6.57356e-17 0
-3.56087e-17 -8.46387e-17 0
4.58164e-17 1.08869e-16 0
-5.88924e-17 -1.39898e-16 0
7.56243e-17 1.79594e-16 0
-9.70153e-17 -2.30326e-16 0
1.24335e-16 2.95101e-16 0
-1.59191e-16 -3.77726e-16 0
2.03623e-16 4.83015e-16 0
-2.60202e-16 -6.17059e-16 0
3.32183e-16 7.87545e-16 0
-4.23671e-16 -1.00418e-15 0
5.39839e-16 1.27918e-15 0
-6.87206e-16 -1.62795e-15 0
8.73975e-16 2.06987e-15 0
-1.11046e-15 -2.62928e-15 0
1.40961e-15 3.33676e-15 0
-1.78768e-15 -4.23069e-15 0
2.26505e-15 5.35915e-15 0
-2.86725e-15 -6.78238e-15 0
3.62621e-15 8.57573e-15 0
-4.58189e-15 -1.08334e-14 0
5.78413e-15 1.36731e-14 0
-7.2953e-15 -1.72415e-14 0
9.19283e-15 2.17218e-14 0
-1.15738e-14 -2.73419e-14 0
1.4558e-14 3.43858e-14 0
-1.82963e-14 -4.32059e-14 0
2.29726e-14 5.42415e-14 0
-2.88218e-14 -6.80352e-14 0
3.61232e-14 8.52649e-14 0
-4.52449e-14 -1.06762e-13 0
5.66034e-14 1.33571e-13 0
-7.07839e-14 -1.66957e-13 0
8.83853e-14 2.08535e-13 0
-1.1037e-13 -2.60205e-13 0
1.37528e-13 3.24481e-13 0
-1.7154e-13 -4.04164e-13 0
2.13227e-13 5.03234e-13 0
-2.65811e-13 -6.25656e-13 0
3.29344e-13 7.7796e-13 0
-4.10795e-13 -9.65249e-13 0
5.06557e-13 1.19896e-12 0
-6.33608e-13 -1.48401e-12 0
7.75162e-13 1.84247e-12 0
-9.76614e-13 -2.2732e-12 0
1.17803e-12 2.82428e-12 0
-1.50804e-12 -3.46784e-12 0
1.77136e-12 4.32143e-12 0
-2.34386e-12 -5.26391e-12 0
2.61521e-12 6.60896e-12 0
-3.69826e-12 -7.93577e-12 0
3.72821e-12 1.01278e-11 0
-6.01128e-12 -1.1838e-11 0
4.92992e-12 1.56249e-11 0
-1.02914e-11 -1.73392e-11 0
5.3457e-12 2.44766e-11 0
-1.90647e-11 -2.45233e-11 0
-5.60812e-22 1.47703e-22 0
-1.29005e-22 8.78871e-22 0
-1.54038e-22 -7.03648e-22 0
4.05118e-22 1.08102e-21 0
-2.47164e-22 -1.4845e-21 0
1.10981e-21 1.73688e-21 0
-8.26669e-22 -2.5634e-21 0
1.49279e-21 3.28511e-21 0
-1.87205e-21 -4.45085e-21 0
2.15282e-21 6.11288e-21 0
-3.30787e-21 -7.92482e-21 0
4.21194e-21 1.0715e-20 0
-6.1094e-21 -1.40841e-20 0
7.71436e-21 1.89066e-20 0
-1.01062e-20 -2.52301e-20 0
1.40597e-20 3.33337e-20 0
-1.80236e-20 -4.44754e-20 0
2.4151e-20 5.89264e-20 0
-3.18187e-20 -7.80531e-20 0
4.2456e-20 1.0316e-19 0
-5.66353e-20 -1.36184e-19 0
7.42164e-20 1.79988e-19 0
-9.81153e-20 -2.37273e-19 0
1.29323e-19 3.12546e-19 0
-1.70131e-19 -4.11294e-19 0
2.24452e-19 5.40336e-19 0
-2.9444e-19 -7.09651e-19 0
3.86792e-19 9.30636e-19 0
-5.06653e-19 -1.21951e-18 0
6.62908e-19 1.59642e-18 0
-8.67714e-19 -2.08703e-18 0
1.13293e-18 2.72626e-18 0
-1.47899e-18 -3.55702e-18 0
1.92835e-18 4.63623e-18 0
-2.51123e-18 -6.0368e-18 0
3.26759e-18 7.85207e-18 0
-4.24647e-18 -1.0203e-17 0
5.5136e-18 1.3244e-17 0
-7.15169e-18 -1.71738e-17 0
9.26655e-18 2.22471e-17 0
-1.19954e-17 -2.87896e-17 0
1.55107e-17 3.72191e-17 0
-2.00372e-17 -4.80681e-17 0
2.58585e-17 6.20173e-17 0
-3.33372e-17 -7.99352e-17 0
4.29367e-17 1.02927e-16 0
-5.52447e-17 -1.32403e-16 0
7.10111e-17 1.70151e-16 0
-9.11878e-17 -2.18447e-16 0
1.16983e-16 2.80179e-16 0
-1.49929e-16 -3.59008e-16 0
1.91966e-16 4.59571e-16 0
-2.45554e-16 -5.87737e-16 0
3.13798e-16 7.50928e-16 0
-4.00626e-16 -9.58517e-16 0
5.10991e-16 1.22233e-15 0
-6.51143e-16 -1.55729e-15 0
8.28952e-16 1.98217e-15 0
-1.05432e-15 -2.52062e-15 0
1.33972e-15 3.20236e-15 0
-1.70078e-15 -4.06472e-15 0
2.15714e-15 5.15455e-15 0
-2.73345e-15 -6.5306e-15 0
3.46054e-15 8.26645e-15 0
-4.37706e-15 -1.04542e-14 0
5.53125e-15 1.32091e-14 0
-6.98355e-15 -1.66749e-14 0
8.8091e-15 2.10313e-14 0
-1.11022e-14 -2.65022e-14 0
1.39793e-14 3.33669e-14 0
-1.75872e-14 -4.19725e-14 0
2.21052e-14 5.2752e-14 0
-2.77625e-14 -6.62412e-14 0
3.4832e-14 8.311e-14 0
-4.36733e-14 -1.04181e-13 0
5.46943e-14 1.3049e-13 0
-6.84685e-14 -1.6329e-13 0
8.55838e-14 2.04186e-13 0
-1.06984e-13 -2.55068e-13 0
1.3345e-13 3.18436e-13 0
-1.66629e-13 -3.97089e-13 0
2.07341e-13 4.94988e-13 0
-2.58747e-13 -6.16112e-13 0
3.20931e-13 7.66966e-13 0
-4.00725e-13 -9.52714e-13 0
4.94669e-13 1.18473e-12 0
-6.19384e-13 -1.46813e-12 0
7.58596e-13 1.82479e-12 0
-9.56697e-13 -2.25413e-12 0
1.15537e-12 2.80358e-12 0
-1.48033e-12 -3.4469e-12 0
1.74123e-12 4.29948e-12 0
-2.30531e-12 -5.24482e-12 0
2.57704e-12 6.58987e-12 0
-3.64378e-12 -7.9271e-12 0
3.68457e-12 1.01194e-11 0
-5.93064e-12 -1.18581e-11 0
4.89301e-12 1.56396e-11 0
-1.01598e-11 -1.74262e-11 0
5.35535e-12 2.45296e-11 0
-1.88158e-11 -2.47586e-11 0
7.84699e-22 -1.45444e-21 0
1.70972e-22 2.22119e-22 0
-3.39188e-22 -8.15207e-22 0
4.38288e-22 8.48679e-22 0
-5.57054e-22 -1.26435e-21 0
9.65182e-22 1.55585e-21 0
-6.45883e-22 -2.37351e-21 0
1.52149e-21 2.92184e-21 0
-1.28808e-21 -4.21739e-21 0
2.19609e-21 5.44289e-21 0
-3.23941e-21 -7.17602e-21 0
3.92562e-21 9.75693e-21 0
-5.22497e-21 -1.3018e-20 0
6.97935e-21 1.73861e-20 0
-9.67557e-21 -2.3001e-20 0
1.24798e-20 3.07434e-20 0
-1.6213e-20 -4.10032e-20 0
2.21839e-20 5.41461e-20 0
-2.96819e-20 -7.16761e-20 0
3.92495e-20 9.49718e-20 0
-5.14733e-20 -1.25789e-19 0
6.79526e-20 1.66264e-19 0
-9.01277e-20 -2.19307e-19 0
1.1875e-19 2.89233e-19 0
-1.57014e-19 -3.80736e-19 0
2.06695e-19 5.00934e-19 0
-2.71308e-19 -6.58567e-19 0
3.56095e-19 8.64778e-19 0
-4.66993e-19 -1.1343e-18 0
6.12555e-19 1.48591e-18 0
-8.0184e-19 -1.94479e-18 0
1.04831e-18 2.54284e-18 0
-1.3702e-18 -3.32086e-18 0
1.78741e-18 4.33309e-18 0
-2.33043e-18 -5.64754e-18 0
3.03451e-18 7.35346e-18 0
-3.94775e-18 -9.56464e-18 0
5.13127e-18 1.24277e-17 0
-6.66169e-18 -1.61319e-17 0
8.64007e-18 2.09187e-17 0
-1.11946e-17 -2.70985e-17 0
1.44898e-17 3.50686e-17 0
-1.87367e-17 -4.53373e-17 0
2.42032e-17 5.85547e-17 0
-3.12336e-17 -7.55503e-17 0
4.02661e-17 9.73824e-17 0
-5.18597e-17 -1.254e-16 0
6.67261e-17 1.6132e-16 0
-8.5769e-17 -2.07326e-16 0
1.1014e-16 2.66194e-16 0
-1.41297e-16 -3.41447e-16 0
1.81094e-16 4.37552e-16 0
-2.31876e-16 -5.60169e-16 0
2.96613e-16 7.16464e-16 0
-3.79062e-16 -9.15497e-16 0
4.83969e-16 1.16872e-15 0
-6.17325e-16 -1.49057e-15 0
7.86685e-16 1.89928e-15 0
-1.00157e-15 -2.4178e-15 0
1.27396e-15 3.07504e-15 0
-1.61893e-15 -3.90731e-15 0
2.05541e-15 4.9603e-15 0
-2.60717e-15 -6.2913e-15 0
3.30401e-15 7.9722e-15 0
-4.18331e-15 -1.0093e-14 0
5.29177e-15 1.27666e-14 0
-6.688e-15 -1.6134e-14 0
8.44489e-15 2.03714e-14 0
-1.06541e-14 -2.56988e-14 0
1.34287e-14 3.2391e-14 0
-1.69119e-14 -4.07898e-14 0
2.12782e-14 5.13223e-14 0
-2.67514e-14 -6.45173e-14 0
3.35979e-14 8.1037e-14 0
-4.21694e-14 -1.01695e-13 0
5.28655e-14 1.27518e-13 0
-6.62476e-14 -1.5975e-13 0
8.28934e-14 1.99982e-13 0
-1.03729e-13 -2.50098e-13 0
1.29523e-13 3.12582e-13 0
-1.61895e-13 -3.90228e-13 0
2.0166e-13 4.86983e-13 0
-2.5192e-13 -6.06836e-13 0
3.1279e-13 7.56268e-13 0
-3.90967e-13 -9.40503e-13 0
4.83134e-13 1.17085e-12 0
-6.0556e-13 -1.45262e-12 0
7.42478e-13 1.8075e-12 0
-9.3728e-13 -2.23547e-12 0
1.13326e-12 2.7833e-12 0
-1.45323e-12 -3.42634e-12 0
1.71174e-12 4.2779e-12 0
-2.26745e-12 -5.22603e-12 0
2.53958e-12 6.57104e-12 0
-3.59005e-12 -7.91854e-12 0
3.64162e-12 1.0111e-11 0
-5.85069e-12 -1.18778e-11 0
4.85658e-12 1.5654e-11 0
-1.00287e-11 -1.75122e-11 0
5.36503e-12 2.45818e-11 0
-1.85669e-11 -2.49919e-11 0
-1.47296e-21 1.36499e-21 0
3.85649e-22 8.88662e-22 0
-4.55883e-22 -3.55166e-22 0
3.12745e-22 9.45892e-22 0
-9.81658e-22 -8.872e-22 0
-2.10776e-22 1.89163e-21 0
-1.52235e-21 -1.8552e-21 0
3.12213e-22 3.12648e-21 0
-1.80272e-21 -3.60718e-21 0
2.418e-21 4.79544e-21 0
-2.13042e-21 -6.88559e-21 0
3.62204e-21 8.86706e-21 0
-4.4981e-21 -1.21206e-20 0
6.59324e-21 1.59085e-20 0
-8.21423e-21 -2.13696e-20 0
1.0583e-20 2.85943e-20 0
-1.57495e-20 -3.73911e-20 0
2.04483e-20 4.98343e-20 0
-2.68835e-20 -6.62221e-20 0
3.51227e-20 8.79898e-20 0
-4.67784e-20 -1.16404e-19 0
6.30078e-20 1.53512e-19 0
-8.27499e-20 -2.03032e-19 0
1.10078e-19 2.67534e-19 0
-1.44574e-19 -3.53013e-19 0
1.89602e-19 4.65257e-19 0
-2.49802e-19 -6.12025e-19 0
3.28306e-19 8.04292e-19 0
-4.32043e-19 -1.05552e-18 0
5.66456e-19 1.38444e-18 0
-7.41549e-19 -1.81401e-18 0
9.72021e-19 2.37352e-18 0
-1.26902e-18 -3.10378e-18 0
1.65859e-18 4.05321e-18 0
-2.16366e-18 -5.28841e-18 0
2.82061e-18 6.89242e-18 0
-3.67412e-18 -8.97342e-18 0
4.77847e-18 1.16719e-17 0
-6.21005e-18 -1.51658e-17 0
8.06213e-18 1.96857e-17 0
-1.04558e-17 -2.5527e-17 0
1.35472e-17 3.30682e-17 0
-1.75332e-17 -4.2795e-17 0
2.26703e-17 5.53275e-17 0
-2.9284e-17 -7.1459e-17 0
3.77891e-17 9.22032e-17 0
-4.87175e-17 -1.18852e-16 0
6.27422e-17 1.53054e-16 0
-8.0727e-17 -1.96906e-16 0
1.03765e-16 2.53078e-16 0
-1.33249e-16 -3.2496e-16 0
1.70945e-16 4.16857e-16 0
-2.19094e-16 -5.34232e-16 0
2.80537e-16 6.84004e-16 0
-3.5887e-16 -8.74937e-16 0
4.58639e-16 1.11811e-15 0
-5.85592e-16 -1.42753e-15 0
7.46983e-16 1.82088e-15 0
-9.51963e-16 -2.32045e-15 0
1.21206e-15 2.95435e-15 0
-1.5418e-15 -3.75796e-15 0
1.95943e-15 4.77578e-15 0
-2.4879e-15 -6.06374e-15 0
3.15601e-15 7.69208e-15 0
-3.99992e-15 -9.74887e-15 0
5.06486e-15 1.23446e-14 0
-6.40765e-15 -1.56174e-14 0
8.09903e-15 1.97404e-14 0
-1.0228e-14 -2.49298e-14 0
1.29047e-14 3.14559e-14 0
-1.62684e-14 -3.96554e-14 0
2.04893e-14 4.99494e-14 0
-2.57857e-14 -6.28601e-14 0
3.24179e-14 7.90418e-14 0
-4.07298e-14 -9.93005e-14 0
5.11127e-14 1.24652e-13 0
-6.41166e-14 -1.56332e-13 0
8.03088e-14 1.95919e-13 0
-1.00597e-13 -2.45288e-13 0
1.25742e-13 3.0691e-13 0
-1.5733e-13 -3.83573e-13 0
1.96175e-13 4.79209e-13 0
-2.4532e-13 -5.97818e-13 0
3.0491e-13 7.45856e-13 0
-3.81507e-13 -9.28605e-13 0
4.71939e-13 1.15731e-12 0
-5.92122e-13 -1.43748e-12 0
7.26791e-13 1.7906e-12 0
-9.18346e-13 -2.2172e-12 0
1.11168e-12 2.76341e-12 0
-1.4267e-12 -3.40618e-12 0
1.68287e-12 4.2567e-12 0
-2.23026e-12 -5.20755e-12 0
2.5028e-12 6.55246e-12 0
-3.53704e-12 -7.91009e-12 0
3.59933e-12 1.01026e-11 0
-5.77142e-12 -1.18973e-11 0
4.82065e-12 1.56681e-11 0
-9.89812e-12 -1.75974e-11 0
5.37474e-12 2.46333e-11 0
-1.83179e-11 -2.52232e-11 0
2.40329e-21 -3.34357e-21 0
4.88078e-22 -5.54264e-22 0
-1.33784e-22 -9.84111e-22 0
2.9942e-22 6.08445e-22 0
-3.93749e-22 -1.14428e-21 0
6.03437e-22 1.37958e-21 0
-6.40794e-22 -1.94281e-21 0
1.06173e-21 2.50754e-21 0
-1.5336e-21 -3.2919e-21 0
1.62898e-21 4.64996e-21 0
-2.2603e-21 -6.19014e-21 0
3.74929e-21 8.07388e-21 0
-4.76988e-21 -1.08329e-20 0
5.13843e-21 1.49089e-20 0
-7.40914e-21 -1.97178e-20 0
1.15577e-20 2.55717e-20 0
-1.4829e-20 -3.42229e-20 0
1.78651e-20 4.62873e-20 0
-2.37262e-20 -6.14988e-20 0
3.29353e-20 8.09915e-20 0
-4.41552e-20 -1.07111e-19 0
5.80344e-20 1.41973e-19 0
-7.65449e-20 -1.87797e-19 0
1.00721e-19 2.48374e-19 0
-1.32095e-19 -3.2805e-19 0
1.74375e-19 4.3244e-19 0
-2.30992e-19 -5.68889e-19 0
3.04555e-19 7.48109e-19 0
-3.99453e-19 -9.83505e-19 0
5.23657e-19 1.29133e-18 0
-6.8701e-19 -1.69332e-18 0
9.00127e-19 2.21821e-18 0
-1.17766e-18 -2.90305e-18 0
1.53975e-18 3.79514e-18 0
-2.01181e-18 -4.95586e-18 0
2.62537e-18 6.4653e-18 0
-3.42129e-18 -8.42636e-18 0
4.45414e-18 1.0971e-17 0
-5.79388e-18 -1.42692e-17 0
7.52915e-18 1.85401e-17 0
-9.77355e-18 -2.40655e-17 0
1.26739e-17 3.12065e-17 0
-1.64193e-17 -4.04259e-17 0
2.12509e-17 5.23168e-17 0
-2.74764e-17 -6.76387e-17 0
3.54897e-17 8.73621e-17 0
-4.57951e-17 -1.12726e-16 0
5.90359e-17 1.45313e-16 0
-7.60308e-17 -1.87138e-16 0
9.78225e-17 2.40768e-16 0
-1.25738e-16 -3.09469e-16 0
1.61464e-16 3.97394e-16 0
-2.07143e-16 -5.09813e-16 0
2.6549e-16 6.53413e-16 0
-3.3995e-16 -8.3667e-16 0
4.3488e-16 1.07032e-15 0
-5.55795e-16 -1.36793e-15 0
7.09664e-16 1.74668e-15 0
-9.05286e-16 -2.22822e-15 0
1.15376e-15 2.83989e-15 0
-1.46907e-15 -3.61616e-15 0
1.86883e-15 4.60041e-15 0
-2.3752e-15 -5.84724e-15 0
3.01601e-15 7.42528e-15 0
-3.82626e-15 -9.42071e-15 0
4.84975e-15 1.19417e-14 0
-6.14159e-15 -1.51238e-14 0
7.77043e-15 1.91369e-14 0
-9.82278e-15 -2.41935e-14 0
1.24058e-14 3.05596e-14 0
-1.5655e-14 -3.85668e-14 0
1.97365e-14 4.86305e-14 0
-2.48631e-14 -6.12663e-14 0
3.12892e-14 7.71211e-14 0
-3.93512e-14 -9.69924e-14 0
4.94322e-14 1.21887e-13 0
-6.20711e-14 -1.5303e-13 0
7.78249e-14 1.9199e-13 0
-9.75844e-14 -2.40632e-13 0
1.22099e-13 3.01413e-13 0
-1.52927e-13 -3.77117e-13 0
1.90877e-13 4.71659e-13 0
-2.38937e-13 -5.8905e-13 0
2.9728e-13 7.35721e-13 0
-3.72334e-13 -9.1701e-13 0
4.6107e-13 1.14411e-12 0
-5.79053e-13 -1.42269e-12 0
7.1152e-13 1.77407e-12 0
-8.99877e-13 -2.19932e-12 0
1.09062e-12 2.74392e-12 0
-1.40074e-12 -3.38639e-12 0
1.65461e-12 4.23586e-12 0
-2.19372e-12 -5.18938e-12 0
2.46668e-12 6.53415e-12 0
-3.48472e-12 -7.90174e-12 0
3.55769e-12 1.00943e-11 0
-5.69281e-12 -1.19166e-11 0
4.78519e-12 1.56819e-11 0
-9.76794e-12 -1.76816e-11 0
5.38449e-12 2.46842e-11 0
-1.80687e-11 -2.54526e-11 0
-4.17275e-21 4.79224e-21 0
-5.72648e-22 1.99334e-21 0
-2.95973e-22 2.04561e-22 0
2.47238e-22 1.17278e-21 0
-4.15743e-22 -7.98365e-22 0
4.01365e-22 1.48344e-21 0
-7.29552e-22 -1.46975e-21 0
1.11074e-21 2.30803e-21 0
-8.80068e-22 -3.09318e-21 0
1.6201e-21 4.47957e-21 0
-2.97575e-21 -5.38113e-21 0
3.02956e-21 7.6398e-21 0
-2.81025e-21 -1.06108e-20 0
5.54304e-21 1.34263e-20 0
-9.14215e-21 -1.71782e-20 0
9.74634e-21 2.38693e-20 0
-1.07712e-20 -3.28318e-20 0
1.62572e-20 4.26016e-20 0
-2.40451e-20 -5.61052e-20 0
3.13671e-20 7.4256e-20 0
-4.00069e-20 -9.94397e-20 0
5.27458e-20 1.31719e-19 0
-6.94903e-20 -1.74657e-19 0
9.14969e-20 2.31291e-19 0
-1.22276e-19 -3.04685e-19 0
1.63164e-19 4.01219e-19 0
-2.14613e-19 -5.29058e-19 0
2.80437e-19 6.97647e-19 0
-3.68319e-19 -9.17978e-19 0
4.84968e-19 1.20535e-18 0
-6.36684e-19 -1.58227e-18 0
8.34523e-19 2.07494e-18 0
-1.09385e-18 -2.718e-18 0
1.43246e-18 3.5555e-18 0
-1.87246e-18 -4.64828e-18 0
2.4437e-18 6.07057e-18 0
-3.1877e-18 -7.91958e-18 0
4.15527e-18 1.03205e-17 0
-5.41034e-18 -1.34363e-17 0
7.03616e-18 1.74751e-17 0
-9.14165e-18 -2.27057e-17 0
1.18668e-17 2.94716e-17 0
-1.53887e-17 -3.82162e-17 0
1.99346e-17 4.95062e-17 0
-2.57973e-17 -6.40691e-17 0
3.33522e-17 8.28341e-17 0
-4.30784e-17 -1.0699e-16 0
5.5586e-17 1.38057e-16 0
-7.16544e-17 -1.77972e-16 0
9.2278e-17 2.29206e-16 0
-1.18724e-16 -2.94907e-16 0
1.52602e-16 3.79077e-16 0
-1.9596e-16 -4.86808e-16 0
2.51397e-16 6.24563e-16 0
-3.22209e-16 -8.00547e-16 0
4.1258e-16 1.02515e-15 0
-5.278e-16 -1.31156e-15 0
6.74566e-16 1.67641e-15 0
-8.61341e-16 -2.14079e-15 0
1.09881e-15 2.73128e-15 0
-1.40045e-15 -3.48146e-15 0
1.78326e-15 4.43365e-15 0
-2.26865e-15 -5.64115e-15 0
2.88351e-15 7.17105e-15 0
-3.66172e-15 -9.10767e-15 0
4.64572e-15 1.1557e-14 0
-5.88895e-15 -1.4652e-14 0
7.45807e-15 1.85594e-14 0
-9.43717e-15 -2.34882e-14 0
1.19304e-14 2.97e-14 0
-1.507e-14 -3.75218e-14 0
1.90176e-14 4.7363e-14 0
-2.39811e-14 -5.9733e-14 0
3.02092e-14 7.52712e-14 0
-3.80305e-14 -9.4767e-14 0
4.78204e-14 1.19218e-13 0
-6.01067e-14 -1.4984e-13 0
7.54368e-14 1.8819e-13 0
-9.46842e-14 -2.36123e-13 0
1.18588e-13 2.96084e-13 0
-1.48678e-13 -3.70852e-13 0
1.85759e-13 4.64324e-13 0
-2.32762e-13 -5.80523e-13 0
2.8989e-13 7.25852e-13 0
-3.63436e-13 -9.05708e-13 0
4.50515e-13 1.13122e-12 0
-5.66341e-13 -1.40824e-12 0
6.96649e-13 1.7579e-12 0
-8.81858e-13 -2.1818e-12 0
1.07005e-12 2.72481e-12 0
-1.37533e-12 -3.36697e-12 0
1.62693e-12 4.21537e-12 0
-2.15782e-12 -5.1715e-12 0
2.4312e-12 6.51608e-12 0
-3.4331e-12 -7.89351e-12 0
3.51667e-12 1.0086e-11 0
-5.61484e-12 -1.19355e-11 0
4.75018e-12 1.56955e-11 0
-9.6382e-12 -1.7765e-11 0
5.39426e-12 2.47344e-11 0
-1.78195e-11 -2.568e-11 0
6.91237e-21 -8.81297e-21 0
1.23376e-21 -2.53909e-21 0
4.03773e-23 -1.74374e-21 0
2.83576e-22 9.77968e-23 0
-2.34052e-22 -1.12607e-21 0
4.98131e-22 9.72689e-22 0
-8.86731e-22 -1.56893e-21 0
3.05159e-22 2.32694e-21 0
-1.30643e-21 -2.95844e-21 0
2.4248e-21 3.45517e-21 0
-1.34395e-21 -5.45328e-21 0
1.36275e-21 7.48565e-21 0
-5.02114e-21 -8.7099e-21 0
7.29494e-21 1.13839e-20 0
-4.84217e-21 -1.72149e-20 0
5.61266e-21 2.34254e-20 0
-1.28025e-20 -2.9005e-20 0
1.88298e-20 3.80135e-20 0
-2.15475e-20 -5.17432e-20 0
2.60872e-20 7.00277e-20 0
-3.56806e-20 -9.25386e-20 0
4.78529e-20 1.22591e-19 0
-6.37524e-20 -1.62321e-19 0
8.69104e-20 2.13619e-19 0
-1.15889e-19 -2.82056e-19 0
1.49982e-19 3.73775e-19 0
-1.94852e-19 -4.9444e-19 0
2.57998e-19 6.51145e-19 0
-3.42138e-19 -8.56123e-19 0
4.49756e-19 1.12625e-18 0
-5.9035e-19 -1.47996e-18 0
7.76235e-19 1.94188e-18 0
-1.01845e-18 -2.54549e-18 0
1.33224e-18 3.33503e-18 0
-1.74096e-18 -4.36454e-18 0
2.27646e-18 5.70467e-18 0
-2.97451e-18 -7.44829e-18 0
3.87982e-18 9.71617e-18 0
-5.05452e-18 -1.26622e-17 0
6.58011e-18 1.64845e-17 0
-8.55906e-18 -2.14383e-17 0
1.11204e-17 2.78538e-17 0
-1.44315e-17 -3.61541e-17 0
1.87109e-17 4.68814e-17 0
-2.42375e-17 -6.07311e-17 0
3.13665e-17 7.85949e-17 0
-4.05502e-17 -1.01615e-16 0
5.23704e-17 1.31251e-16 0
-6.75719e-17 -1.69367e-16 0
8.71029e-17 2.1834e-16 0
-1.12171e-16 -2.81205e-16 0
1.44314e-16 3.61827e-16 0
-1.85489e-16 -4.65122e-16 0
2.38186e-16 5.9734e-16 0
-3.05565e-16 -7.66424e-16 0
3.91637e-16 9.82449e-16 0
-5.01482e-16 -1.25819e-15 0
6.41535e-16 1.60984e-15 0
-8.1994e-16 -2.05786e-15 0
1.04699e-15 2.62816e-15 0
-1.33568e-15 -3.35344e-15 0
1.70241e-15 4.275e-15 0
-2.16785e-15 -5.44488e-15 0
2.75803e-15 6.92867e-15 0
-3.50574e-15 -8.80892e-15 0
4.4521e-15 1.11895e-14 0
-5.64894e-15 -1.42007e-14 0
7.16102e-15 1.80065e-14 0
-9.07004e-15 -2.28122e-14 0
1.14774e-14 2.88754e-14 0
-1.45118e-14 -3.65181e-14 0
1.8331e-14 4.61445e-14 0
-2.31378e-14 -5.82573e-14 0
2.91751e-14 7.34889e-14 0
-3.67646e-14 -9.26208e-14 0
4.62738e-14 1.16641e-13 0
-5.82196e-14 -1.46757e-13 0
7.314e-14 1.84513e-13 0
-9.18914e-14 -2.31756e-13 0
1.15203e-13 2.90917e-13 0
-1.44576e-13 -3.64771e-13 0
1.80813e-13 4.57196e-13 0
-2.26786e-13 -5.72228e-13 0
2.82729e-13 7.16242e-13 0
-3.54803e-13 -8.9469e-13 0
4.40262e-13 1.11864e-12 0
-5.53972e-13 -1.39413e-12 0
6.82165e-13 1.74208e-12 0
-8.64272e-13 -2.16466e-12 0
1.04995e-12 2.70607e-12 0
-1.35045e-12 -3.34791e-12 0
1.59982e-12 4.19523e-12 0
-2.12253e-12 -5.1539e-12 0
2.39635e-12 6.49826e-12 0
-3.38213e-12 -7.88537e-12 0
3.47626e-12 1.00778e-11 0
-5.5375e-12 -1.19543e-11 0
4.71562e-12 1.57087e-11 0
-9.50889e-12 -1.78474e-11 0
5.40404e-12 2.47839e-11 0
-1.75701e-11 -2.59055e-11 0
-1.16548e-20 1.4068e-20 0
-1.7137e-21 5.27562e-21 0
-4.38265e-22 1.54765e-21 0
4.80392e-23 1.45633e-21 0
-4.72638e-22 -3.58074e-22 0
5.94266e-22 1.1886e-21 0
9.56293e-23 -1.70255e-21 0
1.20823e-21 1.8429e-21 0
-1.90181e-21 -2.22152e-21 0
-6.45925e-23 4.08239e-21 0
-8.1523e-22 -5.19547e-21 0
5.51627e-21 5.11454e-21 0
-4.91236e-21 -7.82054e-21 0
-1.46147e-22 1.32813e-20 0
-3.43714e-21 -1.64248e-20 0
1.28124e-20 1.85078e-20 0
-1.49339e-20 -2.54554e-20 0
1.16855e-20 3.7258e-20 0
-1.51791e-20 -4.99407e-20 0
2.493e-20 6.45776e-20 0
-3.40982e-20 -8.53624e-20 0
4.57227e-20 1.13136e-19 0
-6.29957e-20 -1.4895e-19 0
8.16274e-20 1.98056e-19 0
-1.01813e-19 -2.64646e-19 0
1.33324e-19 3.50464e-19 0
-1.81579e-19 -4.60574e-19 0
2.42723e-19 6.06197e-19 0
-3.17601e-19 -7.99813e-19 0
4.17059e-19 1.05332e-18 0
-5.5058e-19 -1.38426e-18 0
7.22452e-19 1.81875e-18 0
-9.442e-19 -2.38853e-18 0
1.2368e-18 3.13186e-18 0
-1.62321e-18 -4.10032e-18 0
2.12608e-18 5.36363e-18 0
-2.77635e-18 -7.01127e-18 0
3.62299e-18 9.15546e-18 0
-4.72728e-18 -1.19417e-17 0
6.16158e-18 1.55604e-17 0
-8.01905e-18 -2.02569e-17 0
1.04244e-17 2.63456e-17 0
-1.35421e-17 -3.42289e-17 0
1.75773e-17 4.44264e-17 0
-2.27905e-17 -5.76061e-17 0
2.95172e-17 7.46245e-17 0
-3.81922e-17 -9.65765e-17 0
4.93724e-17 1.24864e-16 0
-6.37645e-17 -1.61281e-16 0
8.22703e-17 2.0812e-16 0
-1.06042e-16 -2.68308e-16 0
1.36553e-16 3.45573e-16 0
-1.75677e-16 -4.44666e-16 0
2.25797e-16 5.71635e-16 0
-2.89942e-16 -7.34172e-16 0
3.71956e-16 9.42045e-16 0
-4.76723e-16 -1.20765e-15 0
6.10431e-16 1.54672e-15 0
-7.80917e-16 -1.97917e-15 0
9.98094e-16 2.5302e-15 0
-1.2745e-15 -3.23171e-15 0
1.62595e-15 4.12398e-15 0
-2.07245e-15 -5.25785e-15 0
2.63914e-15 6.69748e-15 0
-3.35779e-15 -8.52367e-15 0
4.26826e-15 1.08382e-14 0
-5.42083e-15 -1.3769e-14 0
6.87837e-15 1.7477e-14 0
-8.72034e-15 -2.21641e-14 0
1.10454e-14 2.80839e-14 0
-1.3979e-14 -3.55538e-14 0
1.76748e-14 4.49725e-14 0
-2.23309e-14 -5.68366e-14 0
2.81848e-14 7.17712e-14 0
-3.55508e-14 -9.05501e-14 0
4.47891e-14 1.14152e-13 0
-5.64061e-14 -1.43776e-13 0
7.09301e-14 1.80954e-13 0
-8.92011e-14 -2.27525e-13 0
1.11939e-13 2.85906e-13 0
-1.40615e-13 -3.58866e-13 0
1.76031e-13 4.50268e-13 0
-2.21001e-13 -5.64156e-13 0
2.75789e-13 7.0688e-13 0
-3.46423e-13 -8.83946e-13 0
4.30299e-13 1.10635e-12 0
-5.41934e-13 -1.38033e-12 0
6.68052e-13 1.72661e-12 0
-8.47105e-13 -2.14786e-12 0
1.03032e-12 2.6877e-12 0
-1.32608e-12 -3.3292e-12 0
1.57326e-12 4.17543e-12 0
-2.08785e-12 -5.13659e-12 0
2.36211e-12 6.48069e-12 0
-3.33182e-12 -7.87735e-12 0
3.43644e-12 1.00696e-11 0
-5.46078e-12 -1.19727e-11 0
4.6815e-12 1.57217e-11 0
-9.37999e-12 -1.7929e-11 0
5.41384e-12 2.48327e-11 0
-1.73207e-11 -2.6129e-11 0
1.92107e-20 -2.42361e-20 0
3.01527e-21 -7.93484e-21 0
4.379e-22 -3.71029e-21 0
4.89983e-22 -9.05689e-22 0
-3.43929e-22 -1.31192e-21 0
-3.56104e-22 1.05748e-21 0
-1.28555e-21 -1.11522e-21 0
1.4437e-21 1.38138e-21 0
1.31177e-21 -3.31773e-21 0
1.19777e-21 3.32282e-21 0
-6.16401e-21 -2.50896e-21 0
1.16377e-21 6.24317e-21 0
4.29617e-21 -1.09137e-20 0
5.25596e-21 1.02526e-20 0
-1.51538e-20 -1.01434e-20 0
8.59617e-21 1.81593e-20 0
-1.06149e-21 -2.87047e-20 0
9.01533e-21 3.54476e-20 0
-2.12325e-20 -4.34098e-20 0
2.63544e-20 5.84871e-20 0
-3.32337e-20 -7.84794e-20 0
4.51212e-20 1.03793e-19 0
-5.41007e-20 -1.40113e-19 0
6.5014e-20 1.88654e-19 0
-9.16099e-20 -2.47743e-19 0
1.318e-19 3.23483e-19 0
-1.73997e-19 -4.27492e-19 0
2.23197e-19 5.67111e-19 0
-2.93474e-19 -7.48432e-19 0
3.90055e-19 9.84649e-19 0
-5.09619e-19 -1.2976e-18 0
6.65286e-19 1.70821e-18 0
-8.77315e-19 -2.24259e-18 0
1.15757e-18 2.94012e-18 0
-1.51787e-18 -3.85387e-18 0
1.98144e-18 5.04933e-18 0
-2.59133e-18 -6.60609e-18 0
3.39086e-18 8.6319e-18 0
-4.42714e-18 -1.12696e-17 0
5.76889e-18 1.4701e-17 0
-7.51241e-18 -1.91573e-17 0
9.78106e-18 2.49365e-17 0
-1.27223e-17 -3.24271e-17 0
1.65238e-17 4.21293e-17 0
-2.1439e-17 -5.46816e-17 0
2.7792e-17 7.09037e-17 0
-3.59981e-17 -9.18471e-17 0
4.65801e-17 1.18863e-16 0
-6.0208e-17 -1.53679e-16 0
7.7748e-17 1.98504e-16 0
-1.00304e-16 -2.56159e-16 0
1.29286e-16 3.30245e-16 0
-1.66482e-16 -4.25357e-16 0
2.14172e-16 5.47349e-16 0
-2.75262e-16 -7.03671e-16 0
3.53446e-16 9.03797e-16 0
-4.53418e-16 -1.15976e-15 0
5.81128e-16 1.48685e-15 0
-7.44114e-16 -1.90444e-15 0
9.51933e-16 2.43709e-15 0
-1.21668e-15 -3.11589e-15 0
1.55363e-15 3.98015e-15 0
-1.9821e-15 -5.07956e-15 0
2.52645e-15 6.47686e-15 0
-3.21741e-15 -8.25118e-15 0
4.09363e-15 1.05023e-14 0
-5.2039e-15 -1.33557e-14 0
6.60931e-15 1.69696e-14 0
-8.38711e-15 -2.15424e-14 0
1.06333e-14 2.7324e-14 0
-1.34701e-14 -3.46271e-14 0
1.70475e-14 4.38449e-14 0
-2.15587e-14 -5.54683e-14 0
2.7236e-14 7.01152e-14 0
-3.43865e-14 -8.85518e-14 0
4.33635e-14 1.11748e-13 0
-5.46626e-14 -1.40893e-13 0
6.88032e-14 1.77509e-13 0
-8.66088e-14 -2.23425e-13 0
1.0879e-13 2.81044e-13 0
-1.36789e-13 -3.53131e-13 0
1.71407e-13 4.43533e-13 0
-2.154e-13 -5.56301e-13 0
2.69061e-13 6.9776e-13 0
-3.38288e-13 -8.73467e-13 0
4.20615e-13 1.09436e-12 0
-5.30215e-13 -1.36685e-12 0
6.54299e-13 1.71147e-12 0
-8.30343e-13 -2.13141e-12 0
1.01114e-12 2.66967e-12 0
-1.30221e-12 -3.31084e-12 0
1.54723e-12 4.15596e-12 0
-2.05374e-12 -5.11956e-12 0
2.32846e-12 6.46335e-12 0
-3.28213e-12 -7.86942e-12 0
3.3972e-12 1.00615e-11 0
-5.38466e-12 -1.19909e-11 0
4.64779e-12 1.57344e-11 0
-9.25151e-12 -1.80098e-11 0
5.42365e-12 2.48809e-11 0
-1.70712e-11 -2.63507e-11 0
-3.16664e-20 3.9683e-20 0
-4.72394e-21 1.39616e-20 0
-1.08379e-21 5.16085e-21 0
-1.11269e-22 2.87694e-21 0
4.22149e-22 3.86872e-23 0
1.21762e-21 9.71571e-22 0
-1.0258e-21 -7.69242e-22 0
-2.53342e-21 3.01559e-21 0
-2.5082e-21 -1.63144e-21 0
6.11349e-21 8.51488e-22 0
3.87751e-21 -6.16423e-21 0
-5.93536e-21 8.82985e-21 0
-1.14935e-20 -3.88506e-21 0
1.60472e-20 4.5023e-21 0
3.47894e-21 -1.62171e-20 0
-8.17363e-21 2.37075e-20 0
-1.15712e-20 -2.26572e-20 0
2.37917e-20 2.65006e-20 0
-1.9552e-20 -4.00519e-20 0
2.09045e-20 5.55856e-20 0
-2.94828e-20 -7.32691e-20 0
3.08569e-20 1.00923e-19 0
-3.9905e-20 -1.34789e-19 0
6.90054e-20 1.72413e-19 0
-1.02379e-19 -2.23907e-19 0
1.24021e-19 3.00918e-19 0
-1.52237e-19 -4.02989e-19 0
2.04736e-19 5.31286e-19 0
-2.75517e-19 -6.99174e-19 0
3.55509e-19 9.25212e-19 0
-4.66697e-19 -1.21981e-18 0
6.24793e-19 1.60116e-18 0
-8.28206e-19 -2.10222e-18 0
1.08098e-18 2.7636e-18 0
-1.40842e-18 -3.63006e-18 0
1.8505e-18 4.75642e-18 0
-2.42952e-18 -6.22549e-18 0
3.17326e-18 8.14529e-18 0
-4.13783e-18 -1.06479e-17 0
5.40185e-18 1.3901e-17 0
-7.05313e-18 -1.81266e-17 0
9.1912e-18 2.36166e-17 0
-1.19536e-17 -3.07441e-17 0
1.55364e-17 3.99815e-17 0
-2.01819e-17 -5.19405e-17 0
2.61942e-17 6.74096e-17 0
-3.39551e-17 -8.74046e-17 0
4.39648e-17 1.13225e-16 0
-5.68775e-17 -1.4653e-16 0
7.35188e-17 1.89449e-16 0
-9.49409e-17 -2.44705e-16 0
1.2248e-16 3.15782e-16 0
-1.57851e-16 -4.07123e-16 0
2.03248e-16 5.24393e-16 0
-2.61462e-16 -6.7481e-16 0
3.36036e-16 8.67566e-16 0
-4.31476e-16 -1.11435e-15 0
5.535e-16 1.43003e-15 0
-7.0938e-16 -1.83346e-15 0
9.08324e-16 2.34856e-15 0
-1.162e-15 -3.00564e-15 0
1.48518e-15 3.84311e-15 0
-1.89651e-15 -4.90951e-15 0
2.41956e-15 6.26623e-15 0
-3.08412e-15 -7.99076e-15 0
3.92765e-15 1.01809e-14 0
-4.99753e-15 -1.296e-14 0
6.35307e-15 1.64832e-14 0
-8.06941e-15 -2.0946e-14 0
1.024e-14 2.65941e-14 0
-1.2984e-14 -3.3736e-14 0
1.64475e-14 4.27597e-14 0
-2.08194e-14 -5.415e-14 0
2.63265e-14 6.85181e-14 0
-3.32693e-14 -8.66225e-14 0
4.19939e-14 1.09424e-13 0
-5.29858e-14 -1.38104e-13 0
6.67553e-14 1.74173e-13 0
-8.41098e-14 -2.1945e-13 0
1.0575e-13 2.76326e-13 0
-1.33093e-13 -3.47561e-13 0
1.66933e-13 4.36983e-13 0
-2.09974e-13 -5.48654e-13 0
2.62536e-13 6.88872e-13 0
-3.30388e-13 -8.63246e-13 0
4.112e-13 1.08265e-12 0
-5.18803e-13 -1.35367e-12 0
6.40892e-13 1.69665e-12 0
-8.13972e-13 -2.11529e-12 0
9.92389e-13 2.65199e-12 0
-1.27882e-12 -3.29281e-12 0
1.52171e-12 4.13681e-12 0
-2.02019e-12 -5.1028e-12 0
2.29538e-12 6.44625e-12 0
-3.23306e-12 -7.8616e-12 0
3.35853e-12 1.00534e-11 0
-5.30913e-12 -1.20089e-11 0
4.61449e-12 1.57468e-11 0
-9.12344e-12 -1.80896e-11 0
5.43346e-12 2.49284e-11 0
-1.68215e-11 -2.65704e-11 0
5.17923e-20 -6.61596e-20 0
7.58875e-21 -2.22676e-20 0
1.40596e-21 -9.50435e-21 0
-2.81756e-22 -3.13243e-21 0
-1.14336e-21 -1.88966e-21 0
6.49036e-22 -8.23661e-23 0
3.84664e-21 -3.21428e-21 0
4.67312e-21 -2.10344e-22 0
-4.60268e-21 -3.55031e-22 0
-9.15433e-21 6.90281e-21 0
3.25951e-21 -5.90561e-21 0
2.05505e-20 -2.57386e-21 0
-1.03738e-20 -3.04135e-21 0
-2.14268e-20 1.89889e-20 0
8.49306e-21 -1.79919e-20 0
2.61203e-20 8.43826e-21 0
-2.65102e-20 -1.3945e-20 0
5.07109e-21 3.09691e-20 0
-5.95978e-21 -4.21673e-20 0
1.72989e-20 5.25015e-20 0
-1.46203e-20 -7.34701e-20 0
2.98906e-20 9.38684e-20 0
-6.37796e-20 -1.14829e-19 0
8.25983e-20 1.52798e-19 0
-7.92125e-20 -2.14886e-19 0
9.51405e-20 2.89262e-19 0
-1.4409e-19 -3.75915e-19 0
1.93882e-19 4.95637e-19 0
-2.45171e-19 -6.59377e-19 0
3.28969e-19 8.68489e-19 0
-4.51604e-19 -1.13793e-18 0
5.95049e-19 1.49849e-18 0
-7.61275e-19 -1.98047e-18 0
9.9542e-19 2.60595e-18 0
-1.32068e-18 -3.41697e-18 0
1.73888e-18 4.47999e-18 0
-2.26592e-18 -5.87647e-18 0
2.95781e-18 7.69784e-18 0
-3.88073e-18 -1.00641e-17 0
5.08203e-18 1.3146e-17 0
-6.62669e-18 -1.71632e-17 0
8.62535e-18 2.23892e-17 0
-1.12332e-17 -2.91713e-17 0
1.46305e-17 3.79643e-17 0
-1.90238e-17 -4.93645e-17 0
2.46966e-17 6.41321e-17 0
-3.20307e-17 -8.32375e-17 0
4.15192e-17 1.07924e-16 0
-5.37759e-17 -1.39796e-16 0
6.95723e-17 1.80911e-16 0
-8.99101e-17 -2.33903e-16 0
1.16082e-16 3.02133e-16 0
-1.49743e-16 -3.89894e-16 0
1.92993e-16 5.02675e-16 0
-2.48495e-16 -6.47478e-16 0
3.19648e-16 8.33228e-16 0
-4.10788e-16 -1.07128e-15 0
5.27432e-16 1.37608e-15 0
-6.76584e-16 -1.76599e-15 0
8.67117e-16 2.26432e-15 0
-1.11029e-15 -2.90064e-15 0
1.42035e-15 3.71246e-15 0
-1.81536e-15 -4.74724e-15 0
2.31813e-15 6.06504e-15 0
-2.95751e-15 -7.74178e-15 0
3.76985e-15 9.87338e-15 0
-4.8011e-15 -1.25808e-14 0
6.10893e-15 1.60168e-14 0
-7.76639e-15 -2.03734e-14 0
9.86453e-15 2.58928e-14 0
-1.25193e-14 -3.28789e-14 0
1.58735e-14 4.17148e-14 0
-2.01112e-14 -5.28795e-14 0
2.54544e-14 6.69773e-14 0
-3.21969e-14 -8.47594e-14 0
4.06778e-14 1.07178e-13 0
-5.13726e-14 -1.35405e-13 0
6.47829e-14 1.70941e-13 0
-8.17001e-14 -2.15595e-13 0
1.02816e-13 2.71747e-13 0
-1.2952e-13 -3.42148e-13 0
1.62604e-13 4.30613e-13 0
-2.04716e-13 -5.4121e-13 0
2.56207e-13 6.8021e-13 0
-3.22713e-13 -8.53273e-13 0
4.02044e-13 1.07122e-12 0
-5.07687e-13 -1.34078e-12 0
6.2782e-13 1.68214e-12 0
-7.97979e-13 -2.0995e-12 0
9.74056e-13 2.63465e-12 0
-1.25589e-12 -3.2751e-12 0
1.49669e-12 4.11798e-12 0
-1.9872e-12 -5.0863e-12 0
2.26285e-12 6.42938e-12 0
-3.18458e-12 -7.85388e-12 0
3.3204e-12 1.00453e-11 0
-5.23417e-12 -1.20267e-11 0
4.58159e-12 1.5759e-11 0
-8.99575e-12 -1.81686e-11 0
5.44327e-12 2.49753e-11 0
-1.65718e-11 -2.67883e-11 0
-8.45996e-20 1.0826e-19 0
-1.22841e-20 3.73637e-20 0
-1.36307e-21 1.42827e-20 0
1.28927e-21 6.15713e-21 0
5.23365e-22 1.90417e-21 0
-3.10384e-21 3.42673e-21 0
-6.5761e-21 1.98322e-21 0
1.95834e-21 8.69749e-22 0
1.37633e-20 -7.77289e-21 0
4.03524e-21 1.69968e-21 0
-2.93608e-20 8.28427e-21 0
-7.69431e-21 7.80518e-21 0
3.78475e-20 -2.2913e-20 0
9.49445e-21 6.74793e-21 0
-4.95791e-20 7.30626e-21 0
1.48007e-20 1.03462e-20 0
2.39524e-20 -3.25345e-20 0
-3.40831e-21 3.2778e-20 0
-1.48984e-20 -3.56474e-20 0
1.11304e-20 5.10861e-20 0
-3.44848e-20 -6.02924e-20 0
6.58901e-20 7.15484e-20 0
-5.54821e-20 -1.07571e-19 0
2.83424e-20 1.61869e-19 0
-5.37423e-20 -2.09426e-19 0
1.09854e-19 2.62208e-19 0
-1.38649e-19 -3.49757e-19 0
1.68066e-19 4.69423e-19 0
-2.39127e-19 -6.1436e-19 0
3.36393e-19 8.0264e-19 0
-4.20794e-19 -1.06827e-18 0
5.22419e-19 1.42144e-18 0
-7.0096e-19 -1.86772e-18 0
9.48178e-19 2.44684e-18 0
-1.24269e-18 -3.21719e-18 0
1.60687e-18 4.23393e-18 0
-2.10985e-18 -5.55435e-18 0
2.79292e-18 7.26706e-18 0
-3.65971e-18 -9.51193e-18 0
4.76112e-18 1.24497e-17 0
-6.20278e-18 -1.62741e-17 0
8.10905e-18 2.12374e-17 0
-1.05931e-17 -2.7686e-17 0
1.37872e-17 3.60722e-17 0
-1.79167e-17 -4.69577e-17 0
2.32819e-17 6.10609e-17 0
-3.02506e-17 -7.93127e-17 0
3.92602e-17 1.02925e-16 0
-5.08736e-17 -1.33451e-16 0
6.5852e-17 1.7287e-16 0
-8.51764e-17 -2.23716e-16 0
1.10089e-16 2.89236e-16 0
-1.42153e-16 -3.73594e-16 0
1.83358e-16 4.82117e-16 0
-2.36277e-16 -6.21592e-16 0
3.0419e-16 8.00675e-16 0
-3.91279e-16 -1.0304e-15 0
5.02845e-16 1.32482e-15 0
-6.45616e-16 -1.70182e-15 0
8.28151e-16 2.18413e-15 0
-1.06132e-15 -2.80061e-15 0
1.35891e-15 3.58787e-15 0
-1.73839e-15 -4.59232e-15 0
2.22184e-15 5.87278e-15 0
-2.8372e-15 -7.50361e-15 0
3.61973e-15 9.57892e-15 0
-4.61404e-15 -1.22175e-14 0
5.87619e-15 1.55694e-14 0
-7.47724e-15 -1.98236e-14 0
9.50584e-15 2.52186e-14 0
-1.2075e-14 -3.20543e-14 0
1.5324e-14 4.07085e-14 0
-1.94326e-14 -5.16546e-14 0
2.46178e-14 6.54904e-14 0
-3.1167e-14 -8.29597e-14 0
3.94125e-14 1.05006e-13 0
-4.982e-14 -1.32793e-13 0
6.28824e-14 1.6781e-13 0
-7.93757e-14 -2.11857e-13 0
9.9983e-14 2.67301e-13 0
-1.26065e-13 -3.36888e-13 0
1.58414e-13 4.24415e-13 0
-1.99621e-13 -5.33959e-13 0
2.50066e-13 6.71765e-13 0
-3.15256e-13 -8.43541e-13 0
3.93137e-13 1.06004e-12 0
-4.96856e-13 -1.32818e-12 0
6.1507e-13 1.66794e-12 0
-7.82352e-13 -2.08403e-12 0
9.56128e-13 2.61763e-12 0
-1.23342e-12 -3.25771e-12 0
1.47216e-12 4.09946e-12 0
-1.95473e-12 -5.07007e-12 0
2.23087e-12 6.41274e-12 0
-3.13669e-12 -7.84625e-12 0
3.2828e-12 1.00373e-11 0
-5.15977e-12 -1.20442e-11 0
4.54908e-12 1.57709e-11 0
-8.86846e-12 -1.82468e-11 0
5.45308e-12 2.50216e-11 0
-1.6322e-11 -2.70043e-11 0
1.37275e-19 -1.77432e-19 0
1.92671e-20 -6.02204e-20 0
1.4944e-21 -2.37834e-20 0
-5.32369e-22 -9.52397e-21 0
2.99141e-21 -6.43063e-21 0
8.93746e-21 -4.73209e-21 0
1.51226e-21 -2.64338e-21 0
-1.7108e-20 8.16003e-21 0
-1.74203e-20 4.63985e-21 0
2.9068e-20 -9.76323e-21 0
3.57061e-20 -1.76907e-20 0
-4.126e-20 2.29402e-20 0
-5.12339e-20 1.32663e-20 0
6.46202e-20 -1.84105e-20 0
3.19036e-20 -2.39508e-20 0
-5.7404e-20 3.99393e-20 0
-1.03746e-20 -1.83756e-20 0
3.34728e-20 1.55114e-20 0
-1.62026e-20 -3.17779e-20 0
4.24125e-20 3.40648e-20 0
-5.86251e-20 -4.44754e-20 0
5.45982e-21 8.80093e-20 0
2.17032e-20 -1.30809e-19 0
4.32175e-20 1.45805e-19 0
-1.05527e-19 -1.73675e-19 0
1.02053e-19 2.45024e-19 0
-1.12823e-19 -3.34621e-19 0
1.86967e-19 4.27997e-19 0
-2.51909e-19 -5.63875e-19 0
2.75489e-19 7.68518e-19 0
-3.42062e-19 -1.02451e-18 0
5.01683e-19 1.3325e-18 0
-6.93863e-19 -1.7429e-18 0
8.79057e-19 2.30814e-18 0
-1.12689e-18 -3.04883e-18 0
1.51264e-18 3.99518e-18 0
-2.02153e-18 -5.23072e-18 0
2.62717e-18 6.86881e-18 0
-3.3956e-18 -9.01931e-18 0
4.44733e-18 1.18063e-17 0
-5.85712e-18 -1.5423e-17 0
7.66182e-18 2.01445e-17 0
-9.96162e-18 -2.63067e-17 0
1.29565e-17 3.43148e-17 0
-1.68918e-17 -4.46949e-17 0
2.20117e-17 5.81538e-17 0
-2.86087e-17 -7.56113e-17 0
3.71114e-17 9.823e-17 0
-4.81154e-17 -1.27487e-16 0
6.23687e-17 1.65284e-16 0
-8.0778e-17 -2.1408e-16 0
1.04488e-16 2.77034e-16 0
-1.34997e-16 -3.5818e-16 0
1.74257e-16 4.62664e-16 0
-2.24757e-16 -5.9706e-16 0
2.89645e-16 7.6978e-16 0
-3.72908e-16 -9.9156e-16 0
4.79633e-16 1.27609e-15 0
-6.16322e-16 -1.64077e-15 0
7.91255e-16 2.10777e-15 0
-1.01494e-15 -2.70524e-15 0
1.30069e-15 3.46897e-15 0
-1.66538e-15 -4.44436e-15 0
2.13039e-15 5.68897e-15 0
-2.7228e-15 -7.2757e-15 0
3.47683e-15 9.29686e-15 0
-4.43582e-15 -1.18691e-14 0
5.65425e-15 1.51399e-14 0
-7.20122e-15 -1.92954e-14 0
9.16308e-15 2.45704e-14 0
-1.16499e-14 -3.12605e-14 0
1.47977e-14 3.97389e-14 0
-1.8782e-14 -5.04733e-14 0
2.3815e-14 6.4055e-14 0
-3.01777e-14 -8.12205e-14 0
3.81957e-14 1.02905e-13 0
-4.83252e-14 -1.30263e-13 0
6.10507e-14 1.64775e-13 0
-7.71327e-14 -2.08231e-13 0
9.72459e-14 2.62984e-13 0
-1.22724e-13 -3.31775e-13 0
1.54357e-13 4.18385e-13 0
-1.94681e-13 -5.26898e-13 0
2.44105e-13 6.63531e-13 0
-3.08008e-13 -8.34043e-13 0
3.84471e-13 1.04913e-12 0
-4.86301e-13 -1.31586e-12 0
6.02633e-13 1.65404e-12 0
-7.67078e-13 -2.06887e-12 0
9.38591e-13 2.60093e-12 0
-1.21138e-12 -3.24064e-12 0
1.4481e-12 4.08125e-12 0
-1.92279e-12 -5.05409e-12 0
2.19941e-12 6.39632e-12 0
-3.08937e-12 -7.83873e-12 0
3.24572e-12 1.00293e-11 0
-5.08593e-12 -1.20614e-11 0
4.51694e-12 1.57826e-11 0
-8.74156e-12 -1.83242e-11 0
5.46287e-12 2.50672e-11 0
-1.60722e-11 -2.72185e-11 0
-2.2209e-19 2.88523e-19 0
-3.12139e-20 9.87938e-20 0
-3.92229e-21 3.89268e-20 0
-3.22316e-21 1.84173e-20 0
-9.70399e-21 1.07309e-20 0
-6.59703e-21 6.45685e-21 0
1.6596e-20 -6.50511e-21 0
3.18287e-20 -1.07805e-20 0
-1.80891e-20 6.82994e-21 0
-6.81621e-20 3.03352e-20 0
1.69397e-20 -1.21472e-20 0
1.09371e-19 -3.96705e-20 0
-3.78321e-20 1.20062e-20 0
-1.15474e-19 5.44161e-20 0
6.17129e-20 -3.84187e-20 0
7.61371e-20 -1.44002e-20 0
-6.10576e-20 5.43699e-21 0
4.14851e-21 2.41708e-20 0
-3.54188e-20 -2.12199e-20 0
2.3911e-20 3.69965e-20 0
6.27344e-20 -8.85223e-20 0
-4.24291e-20 1.04258e-19 0
-8.7264e-20 -8.07674e-20 0
1.23545e-19 1.01487e-19 0
-5.8224e-20 -1.77338e-19 0
6.86907e-20 2.4059e-19 0
-1.55624e-19 -2.93241e-19 0
1.71769e-19 4.01128e-19 0
-1.41986e-19 -5.66469e-19 0
2.19497e-19 7.38669e-19 0
-3.92622e-19 -9.35599e-19 0
5.18247e-19 1.23383e-18 0
-6.00249e-19 -1.66084e-18 0
7.83876e-19 2.19365e-18 0
-1.10826e-18 -2.85779e-18 0
1.47303e-18 3.75158e-18 0
-1.85652e-18 -4.95988e-18 0
2.39312e-18 6.53036e-18 0
-3.1961e-18 -8.54251e-18 0
4.24791e-18 1.11672e-17 0
-5.52692e-18 -1.46276e-17 0
7.15476e-18 1.9156e-17 0
-9.3431e-18 -2.50266e-17 0
1.22553e-17 3.26371e-17 0
-1.60054e-17 -4.254e-17 0
2.07933e-17 5.54304e-17 0
-2.6988e-17 -7.21597e-17 0
3.50765e-17 9.38172e-17 0
-4.55948e-17 -1.21838e-16 0
5.91674e-17 1.58095e-16 0
-7.66348e-17 -2.04978e-16 0
9.91539e-17 2.65521e-16 0
-1.28227e-16 -3.43606e-16 0
1.65721e-16 4.4422e-16 0
-2.1397e-16 -5.7377e-16 0
2.75954e-16 7.40442e-16 0
-3.55529e-16 -9.54672e-16 0
4.57646e-16 1.22976e-15 0
-5.886e-16 -1.58267e-15 0
7.56362e-16 2.035e-15 0
-9.71042e-16 -2.61427e-15 0
1.24549e-15 3.35546e-15 0
-1.59605e-15 -4.30298e-15 0
2.04344e-15 5.51318e-15 0
-2.61396e-15 -7.05753e-15 0
3.34079e-15 9.02658e-15 0
-4.26599e-15 -1.15349e-14 0
5.44252e-15 1.47276e-14 0
-6.93762e-15 -1.87878e-14 0
8.83538e-15 2.39468e-14 0
-1.12432e-14 -3.04962e-14 0
1.42936e-14 3.88045e-14 0
-1.81582e-14 -4.93337e-14 0
2.30443e-14 6.26688e-14 0
-2.92269e-14 -7.95395e-14 0
3.7025e-14 1.00873e-13 0
-4.68855e-14 -1.27814e-13 0
5.92847e-14 1.61833e-13 0
-7.49677e-14 -2.04711e-13 0
9.4601e-14 2.5879e-13 0
-1.19491e-13 -3.26804e-13 0
1.50427e-13 4.12515e-13 0
-1.8989e-13 -5.20018e-13 0
2.38318e-13 6.55501e-13 0
-3.00961e-13 -8.24771e-13 0
3.76036e-13 1.03846e-12 0
-4.76012e-13 -1.30381e-12 0
5.90496e-13 1.64042e-12 0
-7.52145e-13 -2.054e-12 0
9.21434e-13 2.58455e-12 0
-1.18977e-12 -3.22386e-12 0
1.42449e-12 4.06333e-12 0
-1.89134e-12 -5.03835e-12 0
2.16846e-12 6.38012e-12 0
-3.04261e-12 -7.83129e-12 0
3.20914e-12 1.00214e-11 0
-5.01262e-12 -1.20785e-11 0
4.48517e-12 1.5794e-11 0
-8.61503e-12 -1.84007e-11 0
5.47265e-12 2.51122e-11 0
-1.58222e-11 -2.74308e-11 0
3.57541e-19 -4.68053e-19 0
5.02767e-20 -1.59978e-19 0
9.60525e-21 -6.55783e-20 0
1.11688e-20 -3.1217e-20 0
1.121e-20 -1.66804e-20 0
-1.29394e-20 1.09707e-21 0
-4.47624e-20 1.51001e-20 0
-5.16935e-21 1.24958e-21 0
9.27709e-20 -4.07511e-20 0
4.30047e-20 -1.30667e-20 0
-1.55024e-19 6.16129e-20 0
-5.94381e-20 2.4457e-20 0
2.05049e-19 -9.06889e-20 0
2.42285e-20 2.59135e-21 0
-1.92573e-19 6.76771e-20 0
4.15254e-20 -6.31674e-21 0
6.25166e-20 -4.26116e-20 0
8.39321e-21 2.15412e-20 0
2.58958e-20 -4.28586e-20 0
-1.13161e-19 9.14215e-20 0
-1.43188e-20 -5.765e-20 0
1.88611e-19 5.03483e-21 0
-1.15487e-19 -5.72085e-20 0
-2.85759e-20 1.51664e-19 0
-3.04565e-20 -1.77226e-19 0
1.36915e-19 1.95546e-19 0
-7.83864e-20 -2.99703e-19 0
2.8476e-20 4.30864e-19 0
-1.80619e-19 -5.1602e-19 0
3.61974e-19 6.31905e-19 0
-3.74183e-19 -8.75182e-19 0
3.68195e-19 1.20883e-18 0
-5.5801e-19 -1.57002e-18 0
8.50402e-19 2.02385e-18 0
-1.05641e-18 -2.69007e-18 0
1.2552e-18 3.59599e-18 0
-1.67473e-18 -4.72307e-18 0
2.34025e-18 6.15007e-18 0
-3.09835e-18 -8.05879e-18 0
3.94208e-18 1.06139e-17 0
-5.09239e-18 -1.39351e-17 0
6.74706e-18 1.82064e-17 0
-8.92236e-18 -2.37629e-17 0
1.16176e-17 3.10506e-17 0
-1.50361e-17 -4.05677e-17 0
1.95558e-17 5.29084e-17 0
-2.55446e-17 -6.88825e-17 0
3.3309e-17 8.96013e-17 0
-4.32536e-17 -1.16496e-16 0
5.60483e-17 1.51349e-16 0
-7.26393e-17 -1.96416e-16 0
9.41682e-17 2.54619e-16 0
-1.21976e-16 -3.29756e-16 0
1.57753e-16 4.26706e-16 0
-2.0375e-16 -5.51687e-16 0
2.62927e-16 7.12619e-16 0
-3.39066e-16 -9.19626e-16 0
4.36912e-16 1.18566e-15 0
-5.62461e-16 -1.52729e-15 0
7.23356e-16 1.96561e-15 0
-9.29384e-16 -2.52749e-15 0
1.19303e-15 3.24709e-15 0
-1.53014e-15 -4.16784e-15 0
1.9608e-15 5.34497e-15 0
-2.51044e-15 -6.84855e-15 0
3.21123e-15 8.76746e-15 0
-4.10405e-15 -1.12143e-14 0
5.24039e-15 1.43317e-14 0
-6.68571e-15 -1.82998e-14 0
8.52195e-15 2.33468e-14 0
-1.08537e-14 -2.97601e-14 0
1.38106e-14 3.79035e-14 0
-1.75598e-14 -4.82339e-14 0
2.23042e-14 6.13299e-14 0
-2.83128e-14 -7.79141e-14 0
3.58984e-14 9.89055e-14 0
-4.54985e-14 -1.25441e-13 0
5.75813e-14 1.5898e-13 0
-7.28773e-14 -2.01296e-13 0
9.20443e-14 2.54715e-13 0
-1.16363e-13 -3.21969e-13 0
1.46619e-13 4.06802e-13 0
-1.85242e-13 -5.13314e-13 0
2.32697e-13 6.47669e-13 0
-2.94108e-13 -8.15719e-13 0
3.67824e-13 1.02803e-12 0
-4.65979e-13 -1.29201e-12 0
5.78651e-13 1.62709e-12 0
-7.37544e-13 -2.03943e-12 0
9.04644e-13 2.56846e-12 0
-1.16857e-12 -3.20739e-12 0
1.40132e-12 4.0457e-12 0
-1.86039e-12 -5.02287e-12 0
2.13801e-12 6.36413e-12 0
-2.99638e-12 -7.82395e-12 0
3.17305e-12 1.00135e-11 0
-4.93984e-12 -1.20953e-11 0
4.45375e-12 1.58052e-11 0
-8.48887e-12 -1.84765e-11 0
5.48241e-12 2.51566e-11 0
-1.55722e-11 -2.76413e-11 0
-5.72311e-19 7.54482e-19 0
-8.15637e-20 2.59548e-19 0
-2.07601e-20 1.07508e-19 0
-1.58026e-20 5.0265e-20 0
7.06351e-21 1.53752e-20 0
5.3208e-20 -1.28657e-20 0
3.71927e-20 -1.12158e-20 0
-9.70421e-20 4.41802e-20 0
-1.31158e-19 5.07621e-20 0
1.47558e-19 -6.19674e-20 0
2.29155e-19 -9.28052e-20 0
-2.21322e-19 1.00297e-19 0
-2.47256e-19 8.96501e-20 0
2.83314e-19 -1.12917e-19 0
1.21301e-19 -5.24486e-20 0
-1.84312e-19 8.8358e-20 0
-1.65047e-20 -1.2782e-20 0
-4.13227e-20 4.00184e-20 0
9.45927e-20 -7.25004e-20 0
1.69209e-19 -2.24414e-20 0
-2.82968e-19 6.07807e-20 0
-9.94116e-21 7.25961e-20 0
1.76428e-19 -1.69845e-19 0
3.08577e-20 1.22822e-19 0
-1.37292e-19 -1.20638e-19 0
-2.80093e-20 2.44445e-19 0
2.50143e-20 -3.25221e-19 0
2.53164e-19 3.17197e-19 0
-3.64864e-19 -4.03067e-19 0
1.95176e-19 6.48089e-19 0
-1.69495e-19 -8.98911e-19 0
4.51839e-19 1.10031e-18 0
-6.84329e-19 -1.41454e-18 0
6.86231e-19 1.95188e-18 0
-7.79182e-19 -2.62883e-18 0
1.21902e-18 3.39082e-18 0
-1.79157e-18 -4.38567e-18 0
2.23724e-18 5.80935e-18 0
-2.72432e-18 -7.71835e-18 0
3.60789e-18 1.01216e-17 0
-4.9435e-18 -1.31866e-17 0
6.52937e-18 1.72461e-17 0
-8.3583e-18 -2.26386e-17 0
1.07732e-17 2.96597e-17 0
-1.41531e-17 -3.8709e-17 0
1.86474e-17 5.04363e-17 0
-2.43237e-17 -6.57369e-17 0
3.15012e-17 8.56786e-17 0
-4.08317e-17 -1.11541e-16 0
5.31018e-17 1.44985e-16 0
-6.90828e-17 -1.88241e-16 0
8.9648e-17 2.44227e-16 0
-1.16041e-16 -3.16644e-16 0
1.50047e-16 4.10168e-16 0
-1.93986e-16 -5.30773e-16 0
2.50699e-16 6.86157e-16 0
-3.23684e-16 -8.86225e-16 0
4.17401e-16 1.14364e-15 0
-5.37653e-16 -1.47455e-15 0
6.91931e-16 1.89949e-15 0
-8.8978e-16 -2.44468e-15 0
1.14326e-15 3.14352e-15 0
-1.46764e-15 -4.03856e-15 0
1.88229e-15 5.18392e-15 0
-2.41188e-15 -6.64831e-15 0
3.08769e-15 8.51898e-15 0
-3.94948e-15 -1.09065e-14 0
5.04734e-15 1.39512e-14 0
-6.44497e-15 -1.78305e-14 0
8.22214e-15 2.27691e-14 0
-1.04808e-14 -2.90508e-14 0
1.33474e-14 3.70346e-14 0
-1.69854e-14 -4.71723e-14 0
2.15931e-14 6.00362e-14 0
-2.74337e-14 -7.63421e-14 0
3.48138e-14 9.70011e-14 0
-4.41618e-14 -1.23141e-13 0
5.5938e-14 1.56213e-13 0
-7.08582e-14 -1.97979e-13 0
8.95722e-14 2.50756e-13 0
-1.13334e-13 -3.17266e-13 0
1.42929e-13 4.01238e-13 0
-1.80733e-13 -5.0678e-13 0
2.27237e-13 6.40028e-13 0
-2.87442e-13 -8.06879e-13 0
3.59827e-13 1.01784e-12 0
-4.56194e-13 -1.28047e-12 0
5.67087e-13 1.61403e-12 0
-7.23262e-13 -2.02515e-12 0
8.88209e-13 2.55268e-12 0
-1.14777e-12 -3.1912e-12 0
1.37859e-12 4.02836e-12 0
-1.82991e-12 -5.00762e-12 0
2.10804e-12 6.34835e-12 0
-2.95068e-12 -7.8167e-12 0
3.13744e-12 1.00057e-11 0
-4.86757e-12 -1.21119e-11 0
4.42267e-12 1.58161e-11 0
-8.36307e-12 -1.85514e-11 0
5.49215e-12 2.52004e-11 0
-1.53221e-11 -2.78499e-11 0
9.10047e-19 -1.21061e-18 0
1.31412e-19 -4.17557e-19 0
3.19505e-20 -1.72919e-19 0
1.12934e-21 -6.99217e-20 0
-5.53442e-20 -8.31176e-21 0
-7.09302e-20 1.49706e-20 0
7.47014e-20 -3.98888e-20 0
2.24627e-19 -9.26581e-20 0
-5.34326e-20 2.57912e-20 0
-4.2322e-19 1.74236e-19 0
6.24668e-20 -3.99553e-20 0
5.73662e-19 -2.28447e-19 0
-1.76156e-19 8.0385e-20 0
-4.90175e-19 2.00087e-19 0
2.3807e-19 -1.13817e-19 0
1.83084e-19 -5.71631e-20 0
-1.12956e-20 -1.11039e-20 0
-8.57448e-21 2.87488e-20 0
-3.58521e-19 1.14514e-19 0
2.26684e-19 -6.15922e-20 0
3.30232e-19 -1.7803e-19 0
-3.09084e-19 1.98812e-19 0
-1.64324e-19 -3.24449e-20 0
1.65127e-19 5.54024e-20 0
1.38927e-19 -2.20353e-19 0
3.39699e-20 2.12777e-19 0
-4.22311e-19 -1.26486e-19 0
2.91275e-19 2.67001e-19 0
8.21172e-20 -5.46346e-19 0
4.30049e-20 6.73631e-19 0
-4.78722e-19 -7.22105e-19 0
5.29297e-19 9.89011e-19 0
-2.99921e-19 -1.46931e-18 0
4.58341e-19 1.92579e-18 0
-1.03674e-18 -2.37056e-18 0
1.43281e-18 3.09077e-18 0
-1.49488e-18 -4.22428e-18 0
1.77677e-18 5.64272e-18 0
-2.63517e-18 -7.30602e-18 0
3.7468e-18 9.47801e-18 0
-4.73859e-18 -1.24998e-17 0
5.85182e-18 1.65305e-17 0
-7.65273e-18 -2.16625e-17 0
1.03413e-17 2.8217e-17 0
-1.37016e-17 -3.68055e-17 0
1.7681e-17 4.81423e-17 0
-2.27529e-17 -6.29368e-17 0
2.96339e-17 8.20521e-17 0
-3.88418e-17 -1.06755e-16 0
5.07021e-17 1.38819e-16 0
-6.57519e-17 -1.80489e-16 0
8.50611e-17 2.34507e-16 0
-1.10168e-16 -3.04328e-16 0
1.42849e-16 3.94456e-16 0
-1.8509e-16 -5.10786e-16 0
2.39373e-16 6.60906e-16 0
-3.09059e-16 -8.54465e-16 0
3.98659e-16 1.10373e-15 0
-5.13958e-16 -1.42435e-15 0
6.62191e-16 1.83639e-15 0
-8.52425e-16 -2.36551e-15 0
1.09618e-15 3.04445e-15 0
-1.40821e-15 -3.91486e-15 0
1.80741e-15 5.02974e-15 0
-2.31781e-15 -6.45645e-15 0
2.96983e-15 8.28062e-15 0
-3.80204e-15 -1.0611e-14 0
4.86308e-15 1.35855e-14 0
-6.21488e-15 -1.73789e-14 0
7.93516e-15 2.22129e-14 0
-1.01234e-14 -2.83671e-14 0
1.29031e-14 3.61964e-14 0
-1.64339e-14 -4.61471e-14 0
2.09098e-14 5.87857e-14 0
-2.6588e-14 -7.48213e-14 0
3.37693e-14 9.51568e-14 0
-4.28731e-14 -1.20913e-13 0
5.4352e-14 1.53528e-13 0
-6.89073e-14 -1.94759e-13 0
8.7181e-14 2.46907e-13 0
-1.10402e-13 -3.1269e-13 0
1.39352e-13 3.9582e-13 0
-1.76355e-13 -5.00411e-13 0
2.21932e-13 6.32572e-13 0
-2.80956e-13 -7.98245e-13 0
3.52038e-13 1.00788e-12 0
-4.46649e-13 -1.26918e-12 0
5.55794e-13 1.60123e-12 0
-7.0929e-13 -2.01114e-12 0
8.72119e-13 2.53718e-12 0
-1.12735e-12 -3.1753e-12 0
1.35627e-12 4.0113e-12 0
-1.79989e-12 -4.99261e-12 0
2.07854e-12 6.33278e-12 0
-2.9055e-12 -7.80954e-12 0
3.10229e-12 9.99793e-12 0
-4.79581e-12 -1.21283e-11 0
4.39193e-12 1.58268e-11 0
-8.23763e-12 -1.86255e-11 0
5.50185e-12 2.52435e-11 0
-1.50719e-11 -2.80568e-11 0
-1.43896e-18 1.93132e-18 0
-2.04694e-19 6.66791e-19 0
-2.97716e-20 2.67302e-19 0
4.79216e-20 9.26052e-20 0
9.75599e-20 9.91918e-21 0
-2.99153e-20 3.76551e-20 0
-2.94266e-19 1.30321e-19 0
-1.30989e-19 5.10097e-20 0
5.47412e-19 -2.29289e-19 0
3.32298e-19 -1.18507e-19 0
-8.33002e-19 3.47191e-19 0
-3.30271e-19 1.1629e-19 0
9.48456e-19 -3.95631e-19 0
6.70197e-20 -2.75314e-22 0
-5.91298e-19 2.29133e-19 0
1.88993e-20 -3.16003e-21 0
-2.91494e-20 -4.87331e-21 0
4.40377e-19 -1.62275e-19 0
1.19867e-19 -6.06761e-20 0
-7.76593e-19 3.48605e-19 0
1.88154e-19 -1.40124e-19 0
5.40315e-19 -1.46324e-19 0
-1.59033e-19 -1.58734e-20 0
-2.6815e-19 2.2481e-19 0
-2.34371e-19 -6.96717e-20 0
5.81524e-19 -2.97029e-20 0
1.93361e-20 -2.70956e-19 0
-4.43003e-19 5.43584e-19 0
-1.14411e-19 -4.51686e-19 0
6.28996e-19 3.96285e-19 0
-2.70173e-19 -7.40487e-19 0
-9.60536e-20 1.17373e-18 0
-4.04911e-19 -1.35309e-18 0
1.10351e-18 1.55342e-18 0
-1.06781e-18 -2.19309e-18 0
7.40807e-19 3.1652e-18 0
-1.13198e-18 -4.12671e-18 0
2.16176e-18 5.16915e-18 0
-2.92178e-18 -6.75643e-18 0
3.22111e-18 9.12157e-18 0
-3.8891e-18 -1.21264e-17 0
5.53435e-18 1.57507e-17 0
-7.79168e-18 -2.04274e-17 0
1.00768e-17 2.6786e-17 0
-1.25991e-17 -3.52713e-17 0
1.6229e-17 4.62062e-17 0
-2.15735e-17 -6.01951e-17 0
2.85986e-17 7.83447e-17 0
-3.72073e-17 -1.02123e-16 0
4.79457e-17 1.33169e-16 0
-6.20125e-17 -1.7339e-16 0
8.07199e-17 2.25319e-16 0
-1.05174e-16 -2.92439e-16 0
1.36543e-16 3.79339e-16 0
-1.76624e-16 -4.91802e-16 0
2.28166e-16 6.37077e-16 0
-2.94813e-16 -8.24396e-16 0
3.80968e-16 1.06568e-15 0
-4.91926e-16 -1.37631e-15 0
6.3436e-16 1.776e-15 0
-8.16978e-16 -2.28985e-15 0
1.05112e-15 2.94982e-15 0
-1.35134e-15 -3.7966e-15 0
1.73601e-15 4.88209e-15 0
-2.22835e-15 -6.27241e-15 0
2.85772e-15 8.05173e-15 0
-3.66147e-15 -1.03269e-14 0
4.68695e-15 1.32338e-14 0
-5.99456e-15 -1.69444e-14 0
7.66016e-15 2.16771e-14 0
-9.78079e-15 -2.77081e-14 0
1.24769e-14 3.53875e-14 0
-1.59044e-14 -4.51569e-14 0
2.02529e-14 5.75767e-14 0
-2.57742e-14 -7.33495e-14 0
3.2763e-14 9.33705e-14 0
-4.16301e-14 -1.18752e-13 0
5.28207e-14 1.50923e-13 0
-6.70218e-14 -1.91631e-13 0
8.48675e-14 2.43165e-13 0
-1.07561e-13 -3.08237e-13 0
1.35884e-13 3.90543e-13 0
-1.72106e-13 -4.94201e-13 0
2.16776e-13 6.25296e-13 0
-2.74643e-13 -7.89811e-13 0
3.4445e-13 9.98136e-13 0
-4.37334e-13 -1.25813e-12 0
5.44765e-13 1.5887e-12 0
-6.95619e-13 -1.99741e-12 0
8.56362e-13 2.52196e-12 0
-1.10732e-12 -3.15967e-12 0
1.33436e-12 3.9945e-12 0
-1.77032e-12 -4.97782e-12 0
2.0495e-12 6.31742e-12 0
-2.86082e-12 -7.80246e-12 0
3.0676e-12 9.99018e-12 0
-4.72454e-12 -1.21444e-11 0
4.36151e-12 1.58372e-11 0
-8.11255e-12 -1.86988e-11 0
5.51153e-12 2.52861e-11 0
-1.48216e-11 -2.82618e-11 0
2.26686e-18 -3.06702e-18 0
3.06884e-19 -1.05375e-18 0
3.22736e-23 -4.0689e-19 0
-1.04897e-19 -1.36218e-19 0
-2.33165e-20 -7.27367e-20 0
3.19544e-19 -1.67902e-19 0
3.69954e-19 -1.60151e-19 0
-5.01579e-19 2.12775e-19 0
-9.09597e-19 3.56114e-19 0
7.41063e-19 -3.29008e-19 0
1.29367e-18 -5.10291e-19 0
-1.07477e-18 4.71465e-19 0
-1.05545e-18 3.96006e-19 0
1.02538e-18 -4.27005e-19 0
3.81192e-19 -1.43612e-19 0
-1.27943e-19 6.48337e-20 0
-3.48001e-19 1.34819e-19 0
-7.19034e-19 2.95745e-19 0
1.01744e-18 -4.52431e-19 0
5.1986e-19 -1.48673e-19 0
-1.09241e-18 3.98592e-19 0
-1.22357e-19 9.30118e-20 0
4.5646e-19 -2.70243e-19 0
5.67138e-19 -1.09683e-19 0
-5.26964e-19 8.03907e-20 0
-6.8124e-19 4.52656e-19 0
6.80575e-19 -5.43855e-19 0
5.74626e-19 1.31247e-19 0
-7.8822e-19 -1.35447e-19 0
-2.30463e-19 6.87968e-19 0
3.68364e-19 -9.65058e-19 0
7.59735e-19 7.86414e-19 0
-1.24208e-18 -9.20997e-19 0
4.23479e-19 1.69408e-18 0
1.04562e-20 -2.49006e-18 0
9.69935e-19 2.91502e-18 0
-2.10763e-18 -3.50012e-18 0
2.10905e-18 4.85713e-18 0
-1.74148e-18 -6.8159e-18 0
2.52189e-18 8.90142e-18 0
-4.41263e-18 -1.12683e-17 0
6.10216e-18 1.46516e-17 0
-7.12027e-18 -1.95554e-17 0
8.55471e-18 2.59498e-17 0
-1.1578e-17 -3.38514e-17 0
1.60903e-17 4.39095e-17 0
-2.12667e-17 -5.72693e-17 0
2.70252e-17 7.50504e-17 0
-3.44779e-17 -9.82113e-17 0
4.50111e-17 1.2798e-16 0
-5.9333e-17 -1.66353e-16 0
7.76375e-17 2.16201e-16 0
-1.0054e-16 -2.81099e-16 0
1.29731e-16 3.65298e-16 0
-1.67778e-16 -4.74093e-16 0
2.17561e-16 6.14426e-16 0
-2.8209e-16 -7.95472e-16 0
3.64964e-16 1.02911e-15 0
-4.71115e-16 -1.33042e-15 0
6.0736e-16 1.71854e-15 0
-7.82617e-16 -2.2178e-15 0
1.00806e-15 2.85939e-15 0
-1.29757e-15 -3.68323e-15 0
1.66859e-15 4.74035e-15 0
-2.14343e-15 -6.09572e-15 0
2.75063e-15 7.83199e-15 0
-3.52678e-15 -1.00542e-14 0
4.51814e-15 1.28958e-14 0
-5.78357e-15 -1.65262e-14 0
7.3969e-15 2.11609e-14 0
-9.45258e-15 -2.70723e-14 0
1.20681e-14 3.46065e-14 0
-1.53957e-14 -4.42e-14 0
1.96211e-14 5.64075e-14 0
-2.49905e-14 -7.1925e-14 0
3.17931e-14 9.16399e-14 0
-4.0431e-14 -1.16656e-13 0
5.1342e-14 1.48394e-13 0
-6.5199e-14 -1.88592e-13 0
8.26286e-14 2.39526e-13 0
-1.04808e-13 -3.03902e-13 0
1.32519e-13 3.85401e-13 0
-1.67978e-13 -4.88146e-13 0
2.11763e-13 6.18193e-13 0
-2.68497e-13 -7.8157e-13 0
3.37054e-13 9.88607e-13 0
-4.28242e-13 -1.24731e-12 0
5.33989e-13 1.57641e-12 0
-6.82237e-13 -1.98394e-12 0
8.4093e-13 2.50702e-12 0
-1.08765e-12 -3.14432e-12 0
1.31284e-12 3.97798e-12 0
-1.7412e-12 -4.96326e-12 0
2.0209e-12 6.30225e-12 0
-2.81663e-12 -7.79547e-12 0
3.03334e-12 9.98248e-12 0
-4.65375e-12 -1.21604e-11 0
4.33141e-12 1.58475e-11 0
-7.98781e-12 -1.87714e-11 0
5.52116e-12 2.5328e-11 0
-1.45713e-11 -2.8465e-11 0
-3.56503e-18 4.85105e-18 0
-4.50256e-19 1.6559e-18 0
3.63228e-20 6.30227e-19 0
5.84796e-20 2.62669e-19 0
-2.99349e-19 2.51196e-19 0
-6.01605e-19 2.96525e-19 0
2.38783e-19 -9.37847e-20 0
1.48334e-18 -5.94632e-19 0
-3.96345e-20 6.31236e-20 0
-2.42812e-18 9.95679e-19 0
2.13901e-19 -1.53411e-19 0
2.69907e-18 -1.08283e-18 0
-7.17291e-19 3.45328e-19 0
-1.62607e-18 6.43131e-19 0
3.04562e-19 -1.5057e-19 0
3.22287e-19 -1.25691e-19 0
1.26658e-18 -5.22025e-19 0
-5.5523e-19 2.82431e-19 0
-1.92627e-18 7.29407e-19 0
1.29567e-18 -5.24573e-19 0
1.09729e-18 -4.57589e-19 0
-6.32521e-19 3.29992e-19 0
-1.0404e-18 3.35393e-19 0
3.25763e-20 6.04445e-20 0
1.58044e-18 -7.65615e-19 0
-3.27535e-19 3.48528e-19 0
-1.53116e-18 3.55885e-19 0
6.18815e-19 5.04356e-20 0
1.05395e-18 -8.42624e-19 0
-2.10709e-19 6.86377e-19 0
-1.54883e-18 -1.59985e-19 0
1.02107e-18 5.80442e-19 0
7.12927e-19 -1.60656e-18 0
-4.41808e-19 1.97494e-18 0
-1.52371e-18 -1.77415e-18 0
2.13592e-18 2.2512e-18 0
-8.61926e-19 -3.73688e-18 0
3.67592e-19 5.27496e-18 0
-2.09036e-18 -6.34452e-18 0
4.17343e-18 7.7648e-18 0
-4.60724e-18 -1.05232e-17 0
4.26788e-18 1.45411e-17 0
-5.49515e-18 -1.91753e-17 0
8.82308e-18 2.45323e-17 0
-1.26054e-17 -3.17076e-17 0
1.56234e-17 4.18217e-17 0
-1.88617e-17 -5.53232e-17 0
2.43546e-17 7.24433e-17 0
-3.30159e-17 -9.41192e-17 0
4.42222e-17 1.22288e-16 0
-5.73724e-17 -1.59417e-16 0
7.33693e-17 2.08048e-16 0
-9.44679e-17 -2.71005e-16 0
1.23026e-16 3.52101e-16 0
-1.6072e-16 -4.56765e-16 0
2.09014e-16 5.92268e-16 0
-2.70315e-16 -7.67766e-16 0
3.4873e-16 9.94611e-16 0
-4.50038e-16 -1.28714e-15 0
5.81271e-16 1.66384e-15 0
-7.50663e-16 -2.14866e-15 0
9.68269e-16 2.77239e-15 0
-1.24707e-15 -3.57434e-15 0
1.60412e-15 4.60452e-15 0
-2.06157e-15 -5.92648e-15 0
2.6476e-15 7.62125e-15 0
-3.39786e-15 -9.79203e-15 0
4.3571e-15 1.25703e-14 0
-5.58228e-15 -1.61232e-14 0
7.14513e-15 2.0663e-14 0
-9.13779e-15 -2.64588e-14 0
1.16752e-14 3.38524e-14 0
-1.49063e-14 -4.32754e-14 0
1.90129e-14 5.52766e-14 0
-2.42358e-14 -7.05457e-14 0
3.08583e-14 8.99626e-14 0
-3.92741e-14 -1.14624e-13 0
4.99137e-14 1.45939e-13 0
-6.34363e-14 -1.85639e-13 0
8.0461e-14 2.35986e-13 0
-1.02141e-13 -2.99683e-13 0
1.29254e-13 3.80391e-13 0
-1.63969e-13 -4.82239e-13 0
2.06887e-13 6.11259e-13 0
-2.62513e-13 -7.73518e-13 0
3.29845e-13 9.79287e-13 0
-4.19367e-13 -1.23672e-12 0
5.2346e-13 1.56437e-12 0
-6.69137e-13 -1.97072e-12 0
8.2581e-13 2.49235e-12 0
-1.06833e-12 -3.12922e-12 0
1.2917e-12 3.96171e-12 0
-1.71249e-12 -4.94892e-12 0
1.99273e-12 6.28728e-12 0
-2.77291e-12 -7.78855e-12 0
2.99952e-12 9.97481e-12 0
-4.58344e-12 -1.21761e-11 0
4.30161e-12 1.58575e-11 0
-7.86341e-12 -1.88431e-11 0
5.53076e-12 2.53693e-11 0
-1.43209e-11 -2.86665e-11 0
5.59699e-18 -7.64905e-18 0
6.79639e-19 -2.60226e-18 0
2.01768e-20 -1.02911e-18 0
2.5979e-19 -5.58617e-19 0
7.65823e-19 -5.08402e-19 0
1.93922e-19 -1.4307e-19 0
-1.80767e-18 7.16513e-19 0
-1.30419e-18 4.67519e-19 0
3.06195e-18 -1.30361e-18 0
2.13007e-18 -7.84548e-19 0
-4.13877e-18 1.73232e-18 0
-1.51758e-18 5.13971e-19 0
3.55134e-18 -1.46273e-18 0
4.58605e-19 -1.18285e-19 0
-8.61654e-19 3.48215e-19 0
-1.4823e-18 6.15315e-19 0
-8.4966e-19 2.75143e-19 0
3.46303e-18 -1.39315e-18 0
-9.00882e-20 9.52919e-20 0
-2.98485e-18 1.21703e-18 0
2.80985e-19 -2.02454e-19 0
1.74114e-18 -6.50698e-19 0
1.05421e-18 -4.5399e-19 0
-2.22111e-18 1.01272e-18 0
-1.20667e-18 2.9722e-19 0
2.66525e-18 -9.09081e-19 0
5.00014e-19 -3.77286e-19 0
-2.03163e-18 1.12886e-18 0
-8.30613e-19 -1.25084e-19 0
2.44164e-18 -4.41155e-19 0
2.141e-19 -7.52806e-19 0
-2.17253e-18 1.82136e-18 0
-1.45113e-19 -1.2659e-18 0
2.77363e-18 5.97697e-19 0
-1.49343e-18 -1.59062e-18 0
-1.07425e-18 3.34759e-18 0
2.75115e-19 -4.04587e-18 0
2.99669e-18 4.0059e-18 0
-4.18737e-18 -5.11542e-18 0
2.39626e-18 7.94663e-18 0
-1.45418e-18 -1.11925e-17 0
4.00461e-18 1.39527e-17 0
-7.98109e-18 -1.72356e-17 0
1.00446e-17 2.27256e-17 0
-1.03373e-17 -3.09014e-17 0
1.21186e-17 4.11035e-17 0
-1.75324e-17 -5.32047e-17 0
2.54206e-17 6.85908e-17 0
-3.34902e-17 -8.94499e-17 0
4.15967e-17 1.17559e-16 0
-5.22477e-17 -1.54125e-16 0
6.82859e-17 2.00794e-16 0
-9.08264e-17 -2.60658e-16 0
1.19576e-16 3.38413e-16 0
-1.54853e-16 -4.39892e-16 0
1.99085e-16 5.71822e-16 0
-2.56595e-16 -7.42352e-16 0
3.32376e-16 9.62123e-16 0
-4.31324e-16 -1.24536e-15 0
5.58719e-16 1.61071e-15 0
-7.21575e-16 -2.08197e-15 0
9.29876e-16 2.68924e-15 0
-1.19725e-15 -3.47063e-15 0
1.54113e-15 4.47483e-15 0
-1.98316e-15 -5.76416e-15 0
2.55016e-15 7.41842e-15 0
-3.27603e-15 -9.5394e-15 0
4.20392e-15 1.22567e-14 0
-5.38943e-15 -1.57349e-14 0
6.90291e-15 2.01833e-14 0
-8.83472e-15 -2.58672e-14 0
1.12973e-14 3.31243e-14 0
-1.44358e-14 -4.23815e-14 0
1.84281e-14 5.4182e-14 0
-2.35093e-14 -6.92096e-14 0
2.99572e-14 8.83365e-14 0
-3.81574e-14 -1.12652e-13 0
4.85332e-14 1.43555e-13 0
-6.17306e-14 -1.82768e-13 0
7.83615e-14 2.32543e-13 0
-9.95539e-14 -2.95574e-13 0
1.26086e-13 3.75507e-13 0
-1.60073e-13 -4.76477e-13 0
2.02145e-13 6.04488e-13 0
-2.56684e-13 -7.65648e-13 0
3.22816e-13 9.70169e-13 0
-4.107e-13 -1.22635e-12 0
5.13168e-13 1.55257e-12 0
-6.56309e-13 -1.95776e-12 0
8.10995e-13 2.47794e-12 0
-1.04936e-12 -3.11439e-12 0
1.27093e-12 3.9457e-12 0
-1.68421e-12 -4.93479e-12 0
1.96499e-12 6.27249e-12 0
-2.72966e-12 -7.78172e-12 0
2.96611e-12 9.96718e-12 0
-4.51358e-12 -1.21916e-11 0
4.27211e-12 1.58672e-11 0
-7.73935e-12 -1.89141e-11 0
5.54031e-12 2.541e-11 0
-1.40705e-11 -2.88661e-11 0
-8.75091e-18 1.20196e-17 0
-1.09707e-18 4.11033e-18 0
-3.36127e-19 1.74614e-18 0
-8.37554e-19 1.04858e-18 0
-6.69428e-19 5.62346e-19 0
1.71643e-18 -5.96989e-19 0
2.98181e-18 -1.12097e-18 0
-2.40454e-18 1.10892e-18 0
-5.70038e-18 2.27404e-18 0
3.58482e-18 -1.613e-18 0
6.38677e-18 -2.49174e-18 0
-4.42297e-18 1.93468e-18 0
-3.8096e-18 1.43751e-18 0
1.8883e-18 -8.1105e-19 0
1.81697e-18 -7.41566e-19 0
2.73168e-18 -1.04623e-18 0
-3.77648e-18 1.59758e-18 0
-3.54927e-18 1.33381e-18 0
4.95497e-18 -2.0712e-18 0
1.832e-18 -6.14509e-19 0
-2.63469e-18 1.06065e-18 0
-2.83828e-18 1.14514e-18 0
1.75429e-18 -8.50412e-19 0
4.17145e-18 -1.52477e-18 0
-2.82676e-18 1.09059e-18 0
-3.24595e-18 1.39564e-18 0
2.40336e-18 -1.24181e-18 0
3.1599e-18 -9.16416e-19 0
-2.49857e-18 6.7851e-19 0
-3.00277e-18 1.64233e-18 0
2.96963e-18 -1.92109e-18 0
2.58671e-18 -4.3054e-20 0
-3.92701e-18 3.93067e-19 0
-8.67738e-19 1.85489e-18 0
3.19141e-18 -3.39347e-18 0
1.01705e-18 2.48827e-18 0
-5.05278e-18 -1.72511e-18 0
2.99118e-18 3.62881e-18 0
1.15093e-18 -6.85525e-18 0
-3.04548e-19 8.68866e-18 0
-5.01478e-18 -9.325e-18 0
8.23485e-18 1.15151e-17 0
-6.59713e-18 -1.67307e-17 0
4.63145e-18 2.36312e-17 0
-7.53758e-18 -3.05578e-17 0
1.46169e-17 3.82278e-17 0
-2.10517e-17 -4.92372e-17 0
2.45157e-17 6.55476e-17 0
-2.79654e-17 -8.73384e-17 0
3.60639e-17 1.14385e-16 0
-5.03991e-17 -1.48058e-16 0
6.89397e-17 1.91775e-16 0
-8.95629e-17 -2.49858e-16 0
1.13339e-16 3.26442e-16 0
-1.44451e-16 -4.25713e-16 0
1.87586e-16 5.5325e-16 0
-2.4585e-16 -7.17335e-16 0
3.21095e-16 9.29483e-16 0
-4.16042e-16 -1.2044e-15 0
5.36234e-16 1.56021e-15 0
-6.90537e-16 -2.01941e-15 0
8.90442e-16 2.61074e-15 0
-1.1494e-15 -3.37143e-15 0
1.48311e-15 4.34966e-15 0
-1.91109e-15 -5.60721e-15 0
2.45864e-15 7.22281e-15 0
-3.15909e-15 -9.29647e-15 0
4.05542e-15 1.19554e-14 0
-5.20265e-15 -1.53615e-14 0
6.66967e-15 1.97209e-14 0
-8.54423e-15 -2.5296e-14 0
1.09355e-14 3.24203e-14 0
-1.39848e-14 -4.15165e-14 0
1.78659e-14 5.31223e-14 0
-2.28091e-14 -6.79152e-14 0
2.90872e-14 8.676e-14 0
-3.7078e-14 -1.10738e-13 0
4.71981e-14 1.41239e-13 0
-6.00799e-14 -1.79977e-13 0
7.63281e-14 2.29192e-13 0
-9.7046e-14 -2.91572e-13 0
1.23011e-13 3.70746e-13 0
-1.56287e-13 -4.70855e-13 0
1.97532e-13 5.97875e-13 0
-2.51005e-13 -7.57956e-13 0
3.15961e-13 9.61248e-13 0
-4.02234e-13 -1.2162e-12 0
5.03106e-13 1.541e-12 0
-6.43745e-13 -1.94504e-12 0
7.96474e-13 2.46378e-12 0
-1.03072e-12 -3.0998e-12 0
1.25052e-12 3.92993e-12 0
-1.65632e-12 -4.92087e-12 0
1.93765e-12 6.25789e-12 0
-2.68687e-12 -7.77496e-12 0
2.93311e-12 9.95959e-12 0
-4.44419e-12 -1.22069e-11 0
4.2429e-12 1.58767e-11 0
-7.61562e-12 -1.89843e-11 0
5.5498e-12 2.54501e-11 0
-1.382e-11 -2.9064e-11 0
1.35738e-17 -1.88e-17 0
1.85655e-18 -6.50937e-18 0
9.55524e-19 -2.91367e-18 0
1.04489e-18 -1.51829e-18 0
-1.23178e-18 5.73738e-20 0
-4.44387e-18 1.58962e-18 0
6.28522e-20 -2.62167e-19 0
9.14952e-18 -3.7998e-18 0
9.14894e-19 -1.2219e-19 0
-1.26353e-17 5.15086e-18 0
6.52864e-19 -5.89933e-19 0
1.05481e-17 -4.22662e-18 0
-1.17298e-18 6.59623e-19 0
-3.79828e-18 1.53522e-18 0
-4.30517e-18 1.69685e-18 0
1.54195e-18 -7.79641e-19 0
9.29728e-18 -3.69121e-18 0
-4.3083e-18 1.95302e-18 0
-7.16376e-18 2.75428e-18 0
2.76363e-18 -1.21307e-18 0
5.55156e-18 -2.23791e-18 0
7.80994e-19 -1.19533e-19 0
-7.78546e-18 3.0627e-18 0
-5.08439e-20 -7.24315e-20 0
7.55622e-18 -3.11732e-18 0
-4.75525e-19 4.97519e-19 0
-6.62084e-18 2.425e-18 0
9.3432e-20 8.26376e-20 0
7.0103e-18 -3.13456e-18 0
-1.06605e-18 1.0651e-18 0
-7.02059e-18 2.09262e-18 0
2.95175e-18 -4.54635e-19 0
5.55175e-18 -3.26003e-18 0
-3.56734e-18 3.04578e-18 0
-5.36229e-18 -3.12387e-21 0
6.50872e-18 7.24238e-21 0
1.37928e-18 -3.91644e-18 0
-5.17382e-18 6.7102e-18 0
-1.27842e-18 -5.7952e-18 0
8.59993e-18 4.78332e-18 0
-7.04916e-18 -7.80056e-18 0
4.52723e-19 1.37784e-17 0
3.56381e-19 -1.87126e-17 0
7.28811e-18 2.16555e-17 0
-1.54267e-17 -2.60179e-17 0
1.6926e-17 3.52611e-17 0
-1.43642e-17 -4.92882e-17 0
1.60607e-17 6.58057e-17 0
-2.60962e-17 -8.42717e-17 0
4.07374e-17 1.07557e-16 0
-5.40832e-17 -1.39994e-16 0
6.52365e-17 1.84679e-16 0
-7.93651e-17 -2.43069e-16 0
1.02819e-16 3.17015e-16 0
-1.38288e-16 -4.10964e-16 0
1.84609e-16 5.32507e-16 0
-2.40531e-16 -6.91441e-16 0
3.08441e-16 8.98886e-16 0
-3.95061e-16 -1.16768e-15 0
5.09419e-16 1.51407e-15 0
-6.60564e-16 -1.95982e-15 0
8.5715e-16 2.53397e-15 0
-1.10916e-15 -3.27421e-15 0
1.43047e-15 4.22836e-15 0
-1.8409e-15 -5.45683e-15 0
2.36717e-15 7.0362e-15 0
-3.0434e-15 -9.06417e-15 0
3.9118e-15 1.16658e-14 0
-5.02505e-15 -1.5001e-14 0
6.44891e-15 1.92738e-14 0
-8.26801e-15 -2.47432e-14 0
1.05888e-14 3.17394e-14 0
-1.35501e-14 -4.068e-14 0
1.73225e-14 5.2097e-14 0
-2.21321e-14 -6.66617e-14 0
2.82466e-14 8.52315e-14 0
-3.60354e-14 -1.0888e-13 0
4.59081e-14 1.38989e-13 0
-5.84835e-14 -1.77263e-13 0
7.43589e-14 2.25931e-13 0
-9.46138e-14 -2.87673e-13 0
1.20024e-13 3.66104e-13 0
-1.52605e-13 -4.65369e-13 0
1.9304e-13 5.91416e-13 0
-2.4547e-13 -7.50435e-13 0
3.09273e-13 9.52518e-13 0
-3.93963e-13 -1.20625e-12 0
4.93267e-13 1.52966e-12 0
-6.31437e-13 -1.93256e-12 0
7.8224e-13 2.44988e-12 0
-1.0124e-12 -3.08546e-12 0
1.23047e-12 3.91441e-12 0
-1.62884e-12 -4.90716e-12 0
1.91072e-12 6.24348e-12 0
-2.64452e-12 -7.76828e-12 0
2.90051e-12 9.95203e-12 0
-4.37523e-12 -1.2222e-11 0
4.21396e-12 1.5886e-11 0
-7.49222e-12 -1.90538e-11 0
5.55925e-12 2.54896e-11 0
-1.35695e-11 -2.92601e-11 0
-2.08387e-17 2.92227e-17 0
-3.06969e-18 1.0242e-17 0
-1.39624e-18 4.50139e-18 0
5.52184e-19 1.46556e-18 0
5.19243e-18 -1.37584e-18 0
3.5412e-18 -9.60988e-19 0
-1.04667e-17 4.57916e-18 0
-9.90022e-18 3.79998e-18 0
1.60872e-17 -6.82207e-18 0
1.14647e-17 -4.19298e-18 0
-1.76091e-17 7.38496e-18 0
-6.49728e-18 2.24566e-18 0
8.37123e-18 -3.48511e-18 0
6.32704e-18 -2.48494e-18 0
3.09078e-18 -1.03931e-18 0
-1.43627e-17 5.89936e-18 0
-3.01548e-18 8.20901e-19 0
1.53608e-17 -6.1819e-18 0
9.74452e-19 -1.18842e-19 0
-9.37267e-18 3.84309e-18 0
-6.27201e-18 2.27629e-18 0
9.71894e-18 -4.01493e-18 0
8.13711e-18 -3.06401e-18 0
-1.12423e-17 4.72344e-18 0
-6.23311e-18 2.1398e-18 0
9.53859e-18 -3.79413e-18 0
6.66088e-18 -2.6237e-18 0
-9.95754e-18 4.35763e-18 0
-6.06102e-18 1.81815e-18 0
1.14351e-17 -4.17897e-18 0
3.21025e-18 -1.62415e-18 0
-1.11854e-17 5.28727e-18 0
-1.17698e-18 -8.81987e-19 0
1.20878e-17 -3.31276e-18 0
-3.46705e-18 -2.79157e-19 0
-9.71377e-18 6.23664e-18 0
6.00609e-18 -5.91982e-18 0
8.5243e-18 1.28112e-18 0
-1.19362e-17 -1.05193e-18 0
4.13837e-19 7.30564e-18 0
7.89535e-18 -1.32586e-17 0
-4.54876e-19 1.38559e-17 0
-1.31999e-17 -1.27165e-17 0
1.65509e-17 1.67056e-17 0
-8.26175e-18 -2.71272e-17 0
2.26422e-18 3.92323e-17 0
-9.29049e-18 -4.93e-17 0
2.4944e-17 5.96384e-17 0
-3.69507e-17 -7.61604e-17 0
4.01082e-17 1.02639e-16 0
-4.13569e-17 -1.38549e-16 0
5.15959e-17 1.82162e-16 0
-7.50897e-17 -2.34883e-16 0
1.07401e-16 3.02485e-16 0
-1.4213e-16 -3.92915e-16 0
1.78554e-16 5.13641e-16 0
-2.23327e-16 -6.71287e-16 0
2.86172e-16 8.73761e-16 0
-3.74634e-16 -1.13304e-15 0
4.92464e-16 1.46681e-15 0
-6.42307e-16 -1.89876e-15 0
8.29984e-16 2.45843e-15 0
-1.06726e-15 -3.18207e-15 0
1.37199e-15 4.11496e-15 0
-1.76677e-15 -5.31509e-15 0
2.27791e-15 6.85755e-15 0
-2.93644e-15 -8.83924e-15 0
3.78055e-15 1.13845e-14 0
-4.85979e-15 -1.46515e-14 0
6.23834e-15 1.88416e-14 0
-8.00019e-15 -2.42102e-14 0
1.02511e-14 3.10827e-14 0
-1.31278e-14 -3.9872e-14 0
1.67974e-14 5.11048e-14 0
-2.14801e-14 -6.54464e-14 0
2.74376e-14 8.37478e-14 0
-3.50309e-14 -1.07076e-13 0
4.46624e-14 1.36801e-13 0
-5.69382e-14 -1.74623e-13 0
7.24494e-14 2.22756e-13 0
-9.22521e-14 -2.83875e-13 0
1.17122e-13 3.61578e-13 0
-1.49023e-13 -4.60014e-13 0
1.88668e-13 5.85106e-13 0
-2.40075e-13 -7.43082e-13 0
3.02748e-13 9.43973e-13 0
-3.85882e-13 -1.1965e-12 0
4.83645e-13 1.51854e-12 0
-6.19378e-13 -1.92031e-12 0
7.68283e-13 2.43622e-12 0
-9.94405e-13 -3.07136e-12 0
1.21075e-12 3.89913e-12 0
-1.60173e-12 -4.89365e-12 0
1.88417e-12 6.22924e-12 0
-2.60261e-12 -7.76167e-12 0
2.86828e-12 9.9445e-12 0
-4.30671e-12 -1.22368e-11 0
4.1853e-12 1.58951e-11 0
-7.36913e-12 -1.91225e-11 0
5.56863e-12 2.55284e-11 0
-1.33189e-11 -2.94545e-11 0
3.17357e-17 -4.51237e-17 0
4.58616e-18 -1.58253e-17 0
3.66361e-19 -6.23704e-18 0
-5.00296e-18 -6.11118e-19 0
-7.21662e-18 1.64239e-18 0
8.20247e-18 -4.15618e-18 0
2.11555e-17 -8.67096e-18 0
-1.08287e-17 4.99286e-18 0
-3.17165e-17 1.25362e-17 0
1.56838e-17 -7.20447e-18 0
2.65225e-17 -1.03206e-17 0
-1.12882e-17 5.05748e-18 0
-1.31187e-17 5.1672e-18 0
-8.47897e-18 3.17351e-18 0
1.44411e-17 -6.19856e-18 0
1.95016e-17 -7.40374e-18 0
-2.10743e-17 8.87288e-18 0
-1.39466e-17 5.16251e-18 0
1.28295e-17 -5.4613e-18 0
1.57136e-17 -6.0632e-18 0
-6.18818e-18 2.87543e-18 0
-2.17027e-17 8.54138e-18 0
8.68387e-18 -3.99915e-18 0
1.94668e-17 -7.48587e-18 0
-7.48184e-18 3.30095e-18 0
-1.85358e-17 7.3479e-18 0
6.78124e-18 -3.30888e-18 0
1.94158e-17 -7.26695e-18 0
-1.02073e-17 4.13387e-18 0
-1.67703e-17 6.81465e-18 0
1.25475e-17 -5.8975e-18 0
1.42135e-17 -4.51616e-18 0
-1.63112e-17 5.68615e-18 0
-8.90813e-18 4.46693e-18 0
1.85105e-17 -9.23725e-18 0
2.69299e-18 1.79752e-18 0
-2.03368e-17 4.75964e-18 0
7.85829e-18 7.01729e-19 0
1.41457e-17 -1.0868e-17 0
-1.24733e-17 1.2546e-17 0
-1.01336e-17 -6.18146e-18 0
2.24543e-17 4.0249e-18 0
-9.91902e-18 -1.26144e-17 0
-8.03491e-18 2.51506e-17 0
6.34055e-18 -3.20051e-17 0
1.43711e-17 3.334e-17 0
-3.18351e-17 -3.82908e-17 0
3.07864e-17 5.40405e-17 0
-1.93992e-17 -7.90019e-17 0
1.76879e-17 1.06904e-16 0
-3.55114e-17 -1.35446e-16 0
6.47012e-17 1.69895e-16 0
-9.04561e-17 -2.19155e-16 0
1.07204e-16 2.89786e-16 0
-1.23402e-16 -3.84101e-16 0
1.53405e-16 5.03419e-16 0
-2.06261e-16 -6.52859e-16 0
2.81629e-16 8.43684e-16 0
-3.74612e-16 -1.09233e-15 0
4.83924e-16 1.41824e-15 0
-6.16727e-16 -1.843e-15 0
7.87638e-16 2.39217e-15 0
-1.01445e-15 -3.09874e-15 0
1.31456e-15 4.00697e-15 0
-1.70496e-15 -5.17563e-15 0
2.20538e-15 6.68079e-15 0
-2.84286e-15 -8.61911e-15 0
3.65541e-15 1.11128e-14 0
-4.69468e-15 -1.43166e-14 0
6.02687e-15 1.84278e-14 0
-7.73581e-15 -2.36979e-14 0
9.92445e-15 3.04485e-14 0
-1.27244e-14 -3.90889e-14 0
1.62973e-14 5.01414e-14 0
-2.08569e-14 -6.4266e-14 0
2.66597e-14 8.23068e-14 0
-3.40598e-14 -1.05323e-13 0
4.34544e-14 1.34676e-13 0
-5.54378e-14 -1.72056e-13 0
7.05948e-14 2.19665e-13 0
-8.9958e-14 -2.80174e-13 0
1.14302e-13 3.57163e-13 0
-1.45541e-13 -4.54786e-13 0
1.84412e-13 5.7894e-13 0
-2.34817e-13 -7.35889e-13 0
2.96382e-13 9.35609e-13 0
-3.77983e-13 -1.18696e-12 0
4.74231e-13 1.50763e-12 0
-6.07559e-13 -1.90829e-12 0
7.54593e-13 2.42279e-12 0
-9.76712e-13 -3.05749e-12 0
1.19136e-12 3.88408e-12 0
-1.57499e-12 -4.88033e-12 0
1.85799e-12 6.21518e-12 0
-2.56112e-12 -7.75512e-12 0
2.83644e-12 9.93701e-12 0
-4.23863e-12 -1.22515e-11 0
4.15689e-12 1.59039e-11 0
-7.24636e-12 -1.91904e-11 0
5.57796e-12 2.55667e-11 0
-1.30682e-11 -2.96471e-11 0
-4.82839e-17 6.93295e-17 0
-5.88571e-18 2.39032e-17 0
3.42441e-18 7.99066e-18 0
9.47267e-18 3.47368e-19 0
-2.74376e-18 3.2869e-18 0
-3.01133e-17 1.31489e-17 0
-6.94426e-18 2.20694e-18 0
5.20065e-17 -2.12918e-17 0
8.4174e-18 -1.85439e-18 0
-5.63201e-17 2.29768e-17 0
-1.76424e-18 -5.28036e-19 0
3.02714e-17 -1.22581e-17 0
1.57181e-17 -5.92872e-18 0
-7.36477e-18 3.62928e-18 0
-4.18186e-17 1.66534e-17 0
1.24317e-17 -6.06048e-18 0
4.01014e-17 -1.5767e-17 0
-9.16463e-18 4.49368e-18 0
-3.01895e-17 1.20267e-17 0
-7.4536e-18 2.25372e-18 0
3.6429e-17 -1.47918e-17 0
8.78481e-18 -2.59851e-18 0
-3.65587e-17 1.46863e-17 0
-7.31342e-18 2.19389e-18 0
3.24301e-17 -1.31885e-17 0
9.90204e-18 -3.03596e-18 0
-3.48259e-17 1.38305e-17 0
-5.74144e-18 1.70348e-18 0
3.4919e-17 -1.42021e-17 0
9.38292e-21 1.20194e-18 0
-3.41697e-17 1.28741e-17 0
7.53135e-18 -3.01377e-18 0
3.18348e-17 -1.3243e-17 0
-1.69819e-17 8.66519e-18 0
-2.5969e-17 7.98163e-18 0
2.73617e-17 -8.94703e-18 0
1.29035e-17 -7.38756e-18 0
-3.12571e-17 1.64232e-17 0
1.01267e-18 -6.49009e-18 0
3.24415e-17 -5.38958e-18 0
-2.28187e-17 2.32176e-19 0
-1.34803e-17 1.68903e-17 0
2.57887e-17 -2.64116e-17 0
1.76064e-18 2.13821e-17 0
-3.4519e-17 -1.50141e-17 0
3.5441e-17 2.27033e-17 0
-8.96725e-18 -4.42985e-17 0
-9.08834e-18 6.69984e-17 0
-5.3755e-18 -8.19389e-17 0
4.12343e-17 9.41227e-17 0
-6.89377e-17 -1.16735e-16 0
7.29005e-17 1.58722e-16 0
-6.49383e-17 -2.19164e-16 0
7.01065e-17 2.92453e-16 0
-1.03596e-16 -3.77482e-16 0
1.60839e-16 4.82212e-16 0
-2.26363e-16 -6.21057e-16 0
2.90116e-16 8.09204e-16 0
-3.56929e-16 -1.05944e-15 0
4.43708e-16 1.38386e-15 0
-5.69535e-16 -1.79873e-15 0
7.47596e-16 2.32914e-15 0
-9.84318e-16 -3.01142e-15 0
1.28487e-15 3.89358e-15 0
-1.66052e-15 -5.03553e-15 0
2.13337e-15 6.51116e-15 0
-2.73739e-15 -8.41275e-15 0
3.51667e-15 1.0858e-14 0
-4.52444e-15 -1.39982e-14 0
5.82346e-15 1.80286e-14 0
-7.49103e-15 -2.31994e-14 0
9.62332e-15 2.98302e-14 0
-1.23466e-14 -3.83267e-14 0
1.58193e-14 4.92061e-14 0
-2.02527e-14 -6.31222e-14 0
2.5901e-14 8.09108e-14 0
-3.31126e-14 -1.03623e-13 0
4.22792e-14 1.32612e-13 0
-5.39818e-14 -1.69559e-13 0
6.87977e-14 2.16655e-13 0
-8.77349e-14 -2.76565e-13 0
1.11566e-13 3.52855e-13 0
-1.42156e-13 -4.4968e-13 0
1.8027e-13 5.72913e-13 0
-2.29689e-13 -7.28854e-13 0
2.90165e-13 9.2742e-13 0
-3.70259e-13 -1.1776e-12 0
4.65016e-13 1.49694e-12 0
-5.9597e-13 -1.89648e-12 0
7.41164e-13 2.4096e-12 0
-9.59316e-13 -3.04385e-12 0
1.1723e-12 3.86925e-12 0
-1.54863e-12 -4.86719e-12 0
1.83218e-12 6.20129e-12 0
-2.52005e-12 -7.74864e-12 0
2.80496e-12 9.92954e-12 0
-4.17095e-12 -1.22659e-11 0
4.12874e-12 1.59125e-11 0
-7.12392e-12 -1.92575e-11 0
5.58719e-12 2.56043e-11 0
-1.28175e-11 -2.98379e-11 0
7.39692e-17 -1.06339e-16 0
6.59499e-18 -3.5653e-17 0
-8.27296e-18 -1.10903e-17 0
-3.33146e-18 -5.28876e-18 0
3.25296e-17 -1.63865e-17 0
3.45532e-17 -1.43395e-17 0
-5.71734e-17 2.40505e-17 0
-6.19866e-17 2.32382e-17 0
7.5531e-17 -3.24108e-17 0
5.23248e-17 -1.92695e-17 0
-5.29713e-17 2.24138e-17 0
-3.61745e-17 1.38137e-17 0
-4.57062e-18 8.54516e-19 0
5.99049e-17 -2.46083e-17 0
2.45275e-17 -8.14875e-18 0
-7.30235e-17 2.98096e-17 0
-1.71031e-17 5.31114e-18 0
4.82097e-17 -1.98332e-17 0
3.63921e-17 -1.35649e-17 0
-4.13618e-17 1.7577e-17 0
-4.88433e-17 1.84313e-17 0
4.50905e-17 -1.90168e-17 0
4.36744e-17 -1.64651e-17 0
-3.73269e-17 1.59461e-17 0
-4.64396e-17 1.74882e-17 0
3.8664e-17 -1.62859e-17 0
4.47229e-17 -1.69328e-17 0
-4.41529e-17 1.86502e-17 0
-3.6936e-17 1.32516e-17 0
4.8625e-17 -1.95848e-17 0
2.73703e-17 -1.01187e-17 0
-5.49294e-17 2.28239e-17 0
-1.17884e-17 2.38844e-18 0
5.83279e-17 -2.17623e-17 0
-9.89062e-18 3.58073e-18 0
-5.24617e-17 2.22927e-17 0
3.12909e-17 -1.62691e-17 0
3.80658e-17 -1.00813e-17 0
-5.20133e-17 1.58595e-17 0
-6.04208e-18 7.77017e-18 0
5.12818e-17 -2.86961e-17 0
-2.27851e-17 2.17712e-17 0
-3.92213e-17 -1.18647e-18 0
5.60331e-17 -1.81008e-18 0
-1.19671e-17 -2.09706e-17 0
-3.45002e-17 4.81956e-17 0
2.72404e-17 -5.78497e-17 0
2.56237e-17 5.24472e-17 0
-6.9393e-17 -5.38168e-17 0
6.63139e-17 7.8844e-17 0
-3.12996e-17 -1.24678e-16 0
1.02954e-17 1.76131e-16 0
-3.35796e-17 -2.23783e-16 0
9.20225e-17 2.74126e-16 0
-1.52396e-16 -3.44691e-16 0
1.90251e-16 4.51839e-16 0
-2.09587e-16 -6.03127e-16 0
2.36888e-16 7.99574e-16 0
-3.00131e-16 -1.04423e-15 0
4.11886e-16 1.34974e-15 0
-5.6767e-16 -1.74053e-15 0
7.57203e-16 2.2502e-15 0
-9.78295e-16 -2.91801e-15 0
1.24427e-15 3.78828e-15 0
-1.58261e-15 -4.91371e-15 0
2.02835e-15 6.36166e-15 0
-2.61835e-15 -8.2213e-15 0
3.38983e-15 1.06105e-14 0
-4.38453e-15 -1.36824e-14 0
5.65515e-15 1.76328e-14 0
-7.27379e-15 -2.27103e-14 0
9.33657e-15 2.92302e-14 0
-1.19721e-14 -3.75921e-14 0
1.53409e-14 4.83061e-14 0
-1.9653e-14 -6.20188e-14 0
2.51581e-14 7.95594e-14 0
-3.21956e-14 -1.01972e-13 0
4.11478e-14 1.30603e-13 0
-5.25811e-14 -1.67125e-13 0
6.70646e-14 2.13719e-13 0
-8.55831e-14 -2.73044e-13 0
1.08909e-13 3.48649e-13 0
-1.38861e-13 -4.44693e-13 0
1.7623e-13 5.67023e-13 0
-2.24681e-13 -7.21973e-13 0
2.8409e-13 9.19403e-13 0
-3.62702e-13 -1.16844e-12 0
4.55996e-13 1.48644e-12 0
-5.84608e-13 -1.8849e-12 0
7.27989e-13 2.39663e-12 0
-9.42212e-13 -3.03044e-12 0
1.15355e-12 3.85464e-12 0
-1.52261e-12 -4.85425e-12 0
1.80674e-12 6.18755e-12 0
-2.47939e-12 -7.74222e-12 0
2.77382e-12 9.9221e-12 0
-4.10371e-12 -1.22801e-11 0
4.10084e-12 1.59209e-11 0
-7.00174e-12 -1.9324e-11 0
5.59638e-12 2.56413e-11 0
-1.25668e-11 -3.0027e-11 0
-1.14245e-16 1.63271e-16 0
-8.21625e-18 5.38434e-17 0
5.17225e-18 2.01872e-17 0
-2.78444e-17 2.15158e-17 0
-6.20654e-17 2.89447e-17 0
3.37215e-17 -1.42133e-17 0
1.33385e-16 -5.25965e-17 0
-4.57725e-17 2.30032e-17 0
-1.50045e-16 5.9527e-17 0
4.75791e-17 -2.26119e-17 0
9.19021e-17 -3.62435e-17 0
2.25456e-17 -7.35307e-18 0
-6.39988e-17 2.72473e-17 0
-9.45142e-17 3.62237e-17 0
8.58327e-17 -3.68778e-17 0
8.65933e-17 -3.27508e-17 0
-5.70774e-17 2.48273e-17 0
-8.61798e-17 3.35829e-17 0
1.86313e-17 -9.7829e-18 0
1.09692e-16 -4.33367e-17 0
-1.90897e-17 1.01509e-17 0
-1.03331e-16 4.07915e-17 0
1.07009e-17 -6.67688e-18 0
1.00212e-16 -3.95695e-17 0
-6.00275e-18 4.68964e-18 0
-1.03858e-16 4.1031e-17 0
1.68651e-17 -9.1993e-18 0
9.86081e-17 -3.8283e-17 0
-2.92304e-17 1.35231e-17 0
-9.27785e-17 3.61025e-17 0
4.86368e-17 -2.17197e-17 0
7.98989e-17 -2.94114e-17 0
-7.20732e-17 2.90982e-17 0
-5.39875e-17 2.04738e-17 0
8.99055e-17 -3.77543e-17 0
1.72841e-17 -2.44299e-18 0
-9.71565e-17 3.51785e-17 0
3.20384e-17 -1.10535e-17 0
7.62942e-17 -3.33887e-17 0
-7.26074e-17 3.61728e-17 0
-3.27156e-17 2.15014e-18 0
9.5337e-17 -2.59107e-17 0
-3.85864e-17 2.25851e-18 0
-5.83116e-17 4.07043e-17 0
7.47779e-17 -5.56575e-17 0
4.98826e-18 3.41951e-17 0
-8.78025e-17 -1.17289e-17 0
8.78664e-17 2.36227e-17 0
-1.62731e-17 -6.88483e-17 0
-4.3679e-17 1.17284e-16 0
2.80153e-17 -1.44703e-16 0
5.11835e-17 1.56228e-16 0
-1.29183e-16 -1.79092e-16 0
1.54181e-16 2.37884e-16 0
-1.2956e-16 -3.37586e-16 0
1.03112e-16 4.66874e-16 0
-1.23938e-16 -6.14687e-16 0
2.07674e-16 7.84588e-16 0
-3.33877e-16 -9.97236e-16 0
4.69851e-16 1.28261e-15 0
-5.98349e-16 -1.67046e-15 0
7.30175e-16 2.18644e-15 0
-8.97849e-16 -2.856e-15 0
1.13939e-15 3.71273e-15 0
-1.48488e-15 -4.80662e-15 0
1.95306e-15 6.20938e-15 0
-2.55809e-15 -8.017e-15 0
3.32055e-15 1.03518e-14 0
-4.27766e-15 -1.33663e-14 0
5.48822e-15 1.72514e-14 0
-7.03488e-15 -2.2248e-14 0
9.02214e-15 2.86638e-14 0
-1.15807e-14 -3.68922e-14 0
1.48665e-14 4.74388e-14 0
-1.90797e-14 -6.09466e-14 0
2.4459e-14 7.82404e-14 0
-3.13316e-14 -1.0036e-13 0
4.00719e-14 1.28641e-13 0
-5.12342e-14 -1.64751e-13 0
6.53839e-14 2.10858e-13 0
-8.34856e-14 -2.69613e-13 0
1.06314e-13 3.44549e-13 0
-1.3564e-13 -4.39828e-13 0
1.72283e-13 5.61268e-13 0
-2.19789e-13 -7.15243e-13 0
2.78156e-13 9.11552e-13 0
-3.55311e-13 -1.15945e-12 0
4.47172e-13 1.47615e-12 0
-5.73469e-13 -1.87352e-12 0
7.15067e-13 2.38388e-12 0
-9.25394e-13 -3.01723e-12 0
1.1351e-12 3.84025e-12 0
-1.49694e-12 -4.84148e-12 0
1.78166e-12 6.17398e-12 0
-2.43908e-12 -7.73587e-12 0
2.74309e-12 9.91465e-12 0
-4.03682e-12 -1.22941e-11 0
4.0731e-12 1.59291e-11 0
-6.88e-12 -1.93896e-11 0
5.60546e-12 2.56777e-11 0
-1.23161e-11 -3.02143e-11 0
1.76106e-16 -2.50753e-16 0
1.65669e-17 -8.42988e-17 0
2.14966e-17 -4.30754e-17 0
7.74468e-17 -4.63438e-17 0
1.72771e-17 -1.08036e-17 0
-1.88391e-16 7.51166e-17 0
-6.83776e-17 2.04018e-17 0
2.60873e-16 -1.08274e-16 0
5.44235e-17 -1.54275e-17 0
-1.9088e-16 7.81302e-17 0
-7.38272e-17 2.63518e-17 0
5.4409e-17 -2.47769e-17 0
1.83367e-16 -7.30336e-17 0
-3.13443e-17 1.78163e-17 0
-2.0601e-16 8.17969e-17 0
1.91408e-17 -1.22225e-17 0
1.58603e-16 -6.37475e-17 0
5.53976e-17 -1.82592e-17 0
-1.68887e-16 6.90899e-17 0
-7.7062e-17 2.66497e-17 0
1.65162e-16 -6.7647e-17 0
7.97367e-17 -2.7973e-17 0
-1.46562e-16 6.02512e-17 0
-9.34003e-17 3.35997e-17 0
1.5307e-16 -6.28739e-17 0
8.24433e-17 -2.88955e-17 0
-1.56961e-16 6.37013e-17 0
-6.32966e-17 2.14446e-17 0
1.6365e-16 -6.6056e-17 0
3.32766e-17 -8.82025e-18 0
-1.70739e-16 6.70792e-17 0
1.37811e-17 -8.78083e-18 0
1.63009e-16 -6.39939e-17 0
-6.86714e-17 3.17051e-17 0
-1.3482e-16 4.91018e-17 0
1.25515e-16 -4.98121e-17 0
7.28757e-17 -2.76721e-17 0
-1.58538e-16 6.62846e-17 0
1.39198e-17 -1.39351e-17 0
1.48439e-16 -5.02906e-17 0
-1.09385e-16 3.73672e-17 0
-6.77666e-17 3.37432e-17 0
1.50019e-16 -7.29195e-17 0
-4.16936e-17 3.85396e-17 0
-1.18633e-16 1.87928e-17 0
1.4726e-16 -2.58474e-17 0
-2.5105e-17 -2.9612e-17 0
-1.04067e-16 9.47849e-17 0
1.04253e-16 -1.16151e-16 0
1.94326e-17 9.3519e-17 0
-1.47065e-16 -7.33584e-17 0
1.71984e-16 1.0049e-16 0
-9.32991e-17 -1.80802e-16 0
2.10872e-19 2.85082e-16 0
1.46026e-17 -3.81694e-16 0
7.32532e-17 4.65448e-16 0
-2.15122e-16 -5.61471e-16 0
3.39323e-16 7.07478e-16 0
-4.07165e-16 -9.32724e-16 0
4.35147e-16 1.24942e-15 0
-4.77292e-16 -1.65974e-15 0
5.89197e-16 2.17075e-15 0
-8.00737e-16 -2.80695e-15 0
1.11153e-15 3.61489e-15 0
-1.50609e-15 -4.66075e-15 0
1.97556e-15 6.02592e-15 0
-2.53369e-15 -7.80555e-15 0
3.22114e-15 1.01128e-14 0
-4.1009e-15 -1.3088e-14 0
5.24983e-15 1.69121e-14 0
-6.75436e-15 -2.18205e-14 0
8.70992e-15 2.812e-14 0
-1.12309e-14 -3.62048e-14 0
1.44566e-14 4.65805e-14 0
-1.85746e-14 -5.9888e-14 0
2.38172e-14 7.69463e-14 0
-3.05079e-14 -9.87867e-14 0
3.90214e-14 1.26735e-13 0
-4.99056e-14 -1.62448e-13 0
6.3725e-14 2.0808e-13 0
-8.14223e-14 -2.66277e-13 0
1.03773e-13 3.40553e-13 0
-1.32497e-13 -4.35077e-13 0
1.68438e-13 5.55641e-13 0
-2.15022e-13 -7.08654e-13 0
2.72372e-13 9.03858e-13 0
-3.48091e-13 -1.15064e-12 0
4.38547e-13 1.46604e-12 0
-5.62542e-13 -1.86234e-12 0
7.02406e-13 2.37133e-12 0
-9.08825e-13 -3.00425e-12 0
1.11698e-12 3.82606e-12 0
-1.47158e-12 -4.8289e-12 0
1.75691e-12 6.16056e-12 0
-2.39918e-12 -7.72957e-12 0
2.71271e-12 9.90722e-12 0
-3.97013e-12 -1.2308e-11 0
4.04609e-12 1.59368e-11 0
-6.7581e-12 -1.94546e-11 0
5.61464e-12 2.57134e-11 0
-1.20652e-11 -3.03999e-11 0
-2.66215e-16 3.83166e-16 0
-4.15297e-17 1.3619e-16 0
-7.55347e-17 8.32073e-17 0
-7.4013e-17 5.08663e-17 0
1.88188e-16 -7.03777e-17 0
2.61196e-16 -9.57849e-17 0
-2.89793e-16 1.28269e-16 0
-3.19748e-16 1.2185e-16 0
2.70734e-16 -1.16715e-16 0
2.29959e-16 -8.73733e-17 0
-3.12084e-17 1.82594e-17 0
-2.65933e-16 1.08694e-16 0
-1.36913e-16 4.72243e-17 0
3.34012e-16 -1.3765e-16 0
1.34525e-16 -4.62819e-17 0
-2.3423e-16 9.76662e-17 0
-2.08105e-16 7.82592e-17 0
1.73552e-16 -7.52333e-17 0
2.70015e-16 -1.03515e-16 0
-1.6563e-16 7.24851e-17 0
-2.60334e-16 1.00008e-16 0
1.23733e-16 -5.55592e-17 0
2.74443e-16 -1.06111e-16 0
-1.20191e-16 5.42846e-17 0
-2.7208e-16 1.04668e-16 0
1.36977e-16 -6.03797e-17 0
2.53231e-16 -9.67226e-17 0
-1.63155e-16 7.03783e-17 0
-2.27251e-16 8.50106e-17 0
2.08958e-16 -8.68447e-17 0
1.73006e-16 -6.30673e-17 0
-2.53159e-16 1.03408e-16 0
-9.07681e-17 2.84154e-17 0
2.82118e-16 -1.10567e-16 0
-2.36312e-17 1.45766e-17 0
-2.66007e-16 1.04003e-16 0
1.50325e-16 -6.69597e-17 0
1.82812e-16 -6.31295e-17 0
-2.51326e-16 9.6423e-17 0
-2.42952e-17 8.78349e-18 0
2.58117e-16 -1.06735e-16 0
-1.51262e-16 7.44742e-17 0
-1.43689e-16 3.67692e-17 0
2.62217e-16 -8.47533e-17 0
-8.06296e-17 1.35923e-17 0
-1.75652e-16 9.50712e-17 0
2.23658e-16 -1.29835e-16 0
-2.662e-17 7.06753e-17 0
-2.04479e-16 3.46103e-18 0
2.51815e-16 -4.83037e-18 0
-9.46012e-17 -8.14273e-17 0
-1.02692e-16 1.97032e-16 0
1.60441e-16 -2.74187e-16 0
-3.32731e-17 2.9513e-16 0
-1.77846e-16 -3.00381e-16 0
3.2852e-16 3.51413e-16 0
-3.44629e-16 -4.86821e-16 0
2.62566e-16 7.05373e-16 0
-1.86397e-16 -9.81377e-16 0
2.11217e-16 1.29451e-15 0
-3.7033e-16 -1.65195e-15 0
6.32494e-16 2.09199e-15 0
-9.37965e-16 -2.67287e-15 0
1.2429e-15 3.45812e-15 0
-1.54626e-15 -4.50876e-15 0
1.89056e-15 5.88611e-15 0
-2.34418e-15 -7.66297e-15 0
2.97961e-15 9.93781e-15 0
-3.86015e-15 -1.28478e-14 0
5.03874e-15 1.65795e-14 0
-6.5689e-15 -2.13769e-14 0
8.51832e-15 2.75532e-14 0
-1.09865e-14 -3.55034e-14 0
1.41116e-14 4.57281e-14 0
-1.80883e-14 -5.88586e-14 0
2.31588e-14 7.5702e-14 0
-2.96519e-14 -9.72785e-14 0
3.79435e-14 1.24902e-13 0
-4.85705e-14 -1.60222e-13 0
6.20895e-14 2.05382e-13 0
-7.94136e-14 -2.63023e-13 0
1.01317e-13 3.36646e-13 0
-1.29459e-13 -4.30426e-13 0
1.64721e-13 5.50126e-13 0
-2.10393e-13 -7.02197e-13 0
2.66746e-13 8.96311e-13 0
-3.41035e-13 -1.142e-12 0
4.3011e-13 1.45611e-12 0
-5.51818e-13 -1.85137e-12 0
6.89977e-13 2.35899e-12 0
-8.92492e-13 -2.99149e-12 0
1.09922e-12 3.81205e-12 0
-1.44638e-12 -4.81656e-12 0
1.73277e-12 6.14718e-12 0
-2.35931e-12 -7.72346e-12 0
2.6829e-12 9.89971e-12 0
-3.90394e-12 -1.23216e-11 0
4.01923e-12 1.59443e-11 0
-6.63577e-12 -1.95192e-11 0
5.62608e-12 2.57476e-11 0
-1.18126e-11 -3.05845e-11 0
3.89286e-16 -5.78229e-16 0
8.72726e-17 -2.18028e-16 0
1.05074e-16 -1.21789e-16 0
-1.23852e-16 2.02682e-17 0
-4.6138e-16 1.69611e-16 0
1.19029e-16 -7.18886e-17 0
7.2446e-16 -2.9306e-16 0
-1.48394e-16 7.84347e-17 0
-5.68585e-16 2.25759e-16 0
-6.26662e-17 1.31654e-17 0
3.32833e-16 -1.39896e-16 0
4.31252e-16 -1.65057e-16 0
-3.5284e-16 1.54217e-16 0
-4.77472e-16 1.83042e-16 0
2.34282e-16 -1.0554e-16 0
4.6234e-16 -1.81305e-16 0
-3.57667e-17 2.67374e-17 0
-5.40912e-16 2.15587e-16 0
-1.11447e-17 -8.76871e-18 0
5.12339e-16 -2.04822e-16 0
7.33018e-17 -1.68633e-17 0
-4.96271e-16 1.9934e-16 0
-1.07181e-16 3.0346e-17 0
5.04022e-16 -2.02008e-16 0
8.27562e-17 -2.07902e-17 0
-4.96016e-16 1.97782e-16 0
-3.94692e-17 3.48783e-18 0
4.99637e-16 -1.96952e-16 0
-4.91294e-17 3.09541e-17 0
-4.82356e-16 1.87744e-16 0
1.69218e-16 -7.80256e-17 0
4.26251e-16 -1.61264e-16 0
-3.07541e-16 1.28987e-16 0
-3.04998e-16 1.11676e-16 0
4.28153e-16 -1.74273e-16 0
1.04667e-16 -2.79831e-17 0
-4.72088e-16 1.81708e-16 0
1.53158e-16 -6.73832e-17 0
3.70813e-16 -1.42158e-16 0
-3.79352e-16 1.59782e-16 0
-1.10114e-16 2.45716e-17 0
4.49618e-16 -1.63425e-16 0
-2.348e-16 8.75641e-17 0
-2.44256e-16 1.03008e-16 0
4.24721e-16 -1.88979e-16 0
-1.28829e-16 9.01116e-17 0
-3.0004e-16 6.84643e-17 0
4.22272e-16 -1.12952e-16 0
-1.4801e-16 -2.09811e-18 0
-2.3036e-16 1.71394e-16 0
3.61482e-16 -2.588e-16 0
-1.48769e-16 2.21689e-16 0
-2.11506e-16 -1.32581e-16 0
4.36335e-16 1.03997e-16 0
-3.87543e-16 -1.98413e-16 0
1.47956e-16 3.95056e-16 0
7.53291e-17 -6.23976e-16 0
-1.10778e-16 8.27331e-16 0
-7.69038e-17 -1.00058e-15 0
3.94602e-16 1.19284e-15 0
-7.04117e-16 -1.47749e-15 0
9.12412e-16 1.91887e-15 0
-1.01637e-15 -2.55575e-15 0
1.0907e-15 3.40691e-15 0
-1.24175e-15 -4.49103e-15 0
1.55995e-15 5.84843e-15 0
-2.09493e-15 -7.55587e-15 0
2.85815e-15 9.73205e-15 0
-3.84515e-15 -1.25373e-14 0
5.06237e-15 1.61732e-14 0
-6.5491e-15 -2.08866e-14 0
8.38674e-15 2.69818e-14 0
-1.07028e-14 -3.48389e-14 0
1.36637e-14 4.4942e-14 0
-1.74818e-14 -5.79089e-14 0
2.24034e-14 7.45368e-14 0
-2.87477e-14 -9.584e-14 0
3.68741e-14 1.23128e-13 0
-4.7296e-14 -1.58047e-13 0
6.05513e-14 2.02734e-13 0
-7.75262e-14 -2.59825e-13 0
9.89886e-14 3.32809e-13 0
-1.26552e-13 -4.25862e-13 0
1.61132e-13 5.4472e-13 0
-2.05888e-13 -6.9587e-13 0
2.61258e-13 8.88912e-13 0
-3.34101e-13 -1.13353e-12 0
4.21863e-13 1.44636e-12 0
-5.41225e-13 -1.84061e-12 0
6.77812e-13 2.34685e-12 0
-8.76354e-13 -2.97895e-12 0
1.08173e-12 3.79824e-12 0
-1.42151e-12 -4.80438e-12 0
1.70906e-12 6.13392e-12 0
-2.31926e-12 -7.71764e-12 0
2.65509e-12 9.8916e-12 0
-3.83546e-12 -1.23361e-11 0
3.99567e-12 1.59505e-11 0
-6.513e-12 -1.95836e-11 0
5.63947e-12 2.5781e-11 0
-1.15561e-11 -3.077e-11 0
-5.53277e-16 8.58537e-16 0
-1.27875e-16 3.27283e-16 0
3.41859e-17 1.03169e-16 0
5.61037e-16 -1.77688e-16 0
2.87214e-16 -7.25073e-17 0
-1.07012e-15 4.55972e-16 0
-4.34051e-16 1.47604e-16 0
1.02945e-15 -4.25069e-16 0
4.25462e-16 -1.48792e-16 0
-3.90673e-16 1.72149e-16 0
-8.2139e-16 3.25263e-16 0
8.19529e-17 -5.79859e-17 0
1.00654e-15 -4.0247e-16 0
2.47396e-17 1.427e-17 0
-8.02924e-16 3.25405e-16 0
-3.64107e-16 1.25621e-16 0
7.75509e-16 -3.20777e-16 0
5.10056e-16 -1.84348e-16 0
-7.0763e-16 2.95116e-16 0
-5.67862e-16 2.09462e-16 0
6.05733e-16 -2.55541e-16 0
6.38569e-16 -2.38544e-16 0
-6.00184e-16 2.53317e-16 0
-6.19767e-16 2.30756e-16 0
6.07201e-16 -2.54855e-16 0
5.75092e-16 -2.11759e-16 0
-6.63511e-16 2.74587e-16 0
-4.73024e-16 1.69677e-16 0
7.43941e-16 -3.02784e-16 0
2.99356e-16 -9.86276e-17 0
-8.1108e-16 3.2287e-16 0
-4.96399e-17 9.64994e-20 0
8.16114e-16 -3.18391e-16 0
-2.67162e-16 1.24342e-16 0
-6.8666e-16 2.57074e-16 0
5.8584e-16 -2.40847e-16 0
3.70749e-16 -1.29909e-16 0
-7.78832e-16 3.10592e-16 0
1.04623e-16 -6.39142e-17 0
6.93662e-16 -2.55943e-16 0
-5.80776e-16 2.31388e-16 0
-2.47259e-16 8.76689e-17 0
7.51436e-16 -3.02584e-16 0
-3.69478e-16 1.75909e-16 0
-4.14871e-16 1.23281e-16 0
7.36871e-16 -2.57631e-16 0
-3.02808e-16 9.5167e-17 0
-3.99217e-16 1.89767e-16 0
6.82544e-16 -3.30087e-16 0
-3.2217e-16 2.26055e-16 0
-3.20472e-16 -7.20767e-18 0
6.96957e-16 -1.12882e-16 0
-5.44954e-16 2.09871e-17 0
4.1891e-17 2.28069e-16 0
4.01997e-16 -4.84189e-16 0
-4.72946e-16 6.28095e-16 0
1.45103e-16 -6.49612e-16 0
3.59223e-16 6.38165e-16 0
-7.55839e-16 -7.14592e-16 0
8.79105e-16 9.61987e-16 0
-7.52495e-16 -1.39695e-15 0
5.39676e-16 1.98704e-15 0
-4.35802e-16 -2.69293e-15 0
5.72013e-16 3.50754e-15 0
-9.7683e-16 -4.47494e-15 0
1.59622e-15 5.68755e-15 0
-2.34663e-15 -7.27131e-15 0
3.16824e-15 9.37143e-15 0
-4.05808e-15 -1.21469e-14 0
5.07568e-15 1.57778e-14 0
-6.33194e-15 -2.04809e-14 0
7.96765e-15 2.65342e-14 0
-1.01422e-14 -3.43004e-14 0
1.30225e-14 4.42574e-14 0
-1.67995e-14 -5.70238e-14 0
2.16859e-14 7.34014e-14 0
-2.79681e-14 -9.44074e-14 0
3.59764e-14 1.21352e-13 0
-4.62065e-14 -1.55875e-13 0
5.91823e-14 2.00107e-13 0
-7.57836e-14 -2.56671e-13 0
9.67679e-14 3.29045e-13 0
-1.23742e-13 -4.21393e-13 0
1.576e-13 5.39442e-13 0
-2.01477e-13 -6.89679e-13 0
2.55813e-13 8.81691e-13 0
-3.27313e-13 -1.12523e-12 0
4.13692e-13 1.43682e-12 0
-5.30805e-13 -1.83006e-12 0
6.65905e-13 2.33489e-12 0
-8.60223e-13 -2.96672e-12 0
1.06494e-12 3.78448e-12 0
-1.39641e-12 -4.79263e-12 0
1.6861e-12 6.12072e-12 0
-2.28e-12 -7.71183e-12 0
2.62673e-12 9.8841e-12 0
-3.76778e-12 -1.23507e-11 0
3.97873e-12 1.59547e-11 0
-6.3773e-12 -1.96538e-11 0
5.67134e-12 2.58086e-11 0
-1.12847e-11 -3.09634e-11 0
7.91826e-16 -1.26228e-15 0
8.19094e-17 -4.40229e-16 0
-4.89214e-16 2.59564e-17 0
-7.77681e-16 2.21654e-16 0
1.03152e-15 -4.86657e-16 0
1.5919e-15 -6.26004e-16 0
-1.21173e-15 5.29398e-16 0
-1.38672e-15 5.28745e-16 0
3.45733e-16 -1.75077e-16 0
1.28449e-15 -5.20957e-16 0
6.52124e-16 -2.24633e-16 0
-1.52198e-15 6.31553e-16 0
-8.30991e-16 2.96126e-16 0
1.08935e-15 -4.60888e-16 0
1.15672e-15 -4.38861e-16 0
-7.13658e-16 3.18328e-16 0
-1.42164e-15 5.50547e-16 0
5.39277e-16 -2.51039e-16 0
1.41377e-15 -5.51688e-16 0
-2.88239e-16 1.50746e-16 0
-1.46983e-15 5.77157e-16 0
2.11055e-16 -1.20083e-16 0
1.45722e-15 -5.71927e-16 0
-2.18976e-16 1.22321e-16 0
-1.4297e-15 5.58428e-16 0
3.25055e-16 -1.62795e-16 0
1.38129e-15 -5.34462e-16 0
-5.41623e-16 2.45941e-16 0
-1.25416e-15 4.7686e-16 0
8.26677e-16 -3.52751e-16 0
1.00974e-15 -3.73016e-16 0
-1.13572e-15 4.66122e-16 0
-5.84146e-16 1.97534e-16 0
1.35006e-15 -5.35045e-16 0
-2.71857e-17 4.29053e-17 0
-1.30974e-15 5.04267e-16 0
7.22727e-16 -3.12337e-16 0
8.65157e-16 -3.09259e-16 0
-1.24329e-15 4.92245e-16 0
-1.62168e-17 -2.11123e-17 0
1.22027e-15 -4.69528e-16 0
-9.00203e-16 3.81632e-16 0
-4.70974e-16 1.4083e-16 0
1.27235e-15 -4.74204e-16 0
-6.72833e-16 2.65753e-16 0
-5.999e-16 2.32385e-16 0
1.22028e-15 -5.06827e-16 0
-6.41681e-16 3.21202e-16 0
-5.12743e-16 1.05865e-16 0
1.1882e-15 -3.66647e-16 0
-8.66821e-16 2.4139e-16 0
-9.86257e-17 1.55411e-16 0
9.0603e-16 -5.22933e-16 0
-9.76874e-16 6.32061e-16 0
3.25079e-16 -4.77062e-16 0
5.62142e-16 2.4091e-16 0
-1.12805e-15 -1.45269e-16 0
1.10223e-15 3.11711e-16 0
-6.02798e-16 -7.16843e-16 0
-6.72036e-18 1.24272e-15 0
3.58389e-16 -1.7685e-15 0
-2.6216e-16 2.24322e-15 0
-2.47385e-16 -2.70845e-15 0
9.83356e-16 3.2754e-15 0
-1.72959e-15 -4.08188e-15 0
2.34393e-15 5.25607e-15 0
-2.80531e-15 -6.90213e-15 0
3.20204e-15 9.10938e-15 0
-3.68827e-15 -1.19757e-14 0
4.43152e-15 1.56368e-14 0
-5.58203e-15 -2.02904e-14 0
7.25524e-15 2.62189e-14 0
-9.55261e-15 -3.38013e-14 0
1.25664e-14 4.35374e-14 0
-1.64358e-14 -5.60586e-14 0
2.13252e-14 7.21773e-14 0
-2.75211e-14 -9.29017e-14 0
3.53304e-14 1.19541e-13 0
-4.52921e-14 -1.53707e-13 0
5.78901e-14 1.97531e-13 0
-7.40778e-14 -2.53596e-13 0
9.45157e-14 3.25401e-13 0
-1.20927e-13 -4.1705e-13 0
1.54011e-13 5.3433e-13 0
-1.97118e-13 -6.83633e-13 0
2.503e-13 8.74686e-13 0
-3.20748e-13 -1.11706e-12 0
4.0532e-13 1.42761e-12 0
-5.21019e-13 -1.81953e-12 0
6.53379e-13 2.32348e-12 0
-8.45386e-13 -2.95432e-12 0
1.04725e-12 3.77147e-12 0
-1.3723e-12 -4.78094e-12 0
1.66439e-12 6.10759e-12 0
-2.23811e-12 -7.70778e-12 0
2.60351e-12 9.87562e-12 0
-3.70027e-12 -1.23667e-11 0
3.95315e-12 1.59649e-11 0
-6.25614e-12 -1.97223e-11 0
5.71518e-12 2.58383e-11 0
-1.0989e-11 -3.11774e-11 0
-1.20629e-15 1.87191e-15 0
1.53456e-16 5.3045e-16 0
1.0188e-15 -1.50473e-16 0
-4.26769e-16 3.35176e-16 0
-2.994e-15 1.2532e-15 0
3.40032e-16 -2.13816e-16 0
3.11184e-15 -1.23991e-15 0
2.63942e-16 -2.8802e-17 0
-1.85334e-15 7.73334e-16 0
-1.9458e-15 7.38359e-16 0
1.54211e-15 -6.81721e-16 0
2.44915e-15 -9.45449e-16 0
-9.07355e-16 4.2848e-16 0
-2.41101e-15 9.51821e-16 0
-8.24963e-17 -3.32005e-17 0
2.62074e-15 -1.05294e-15 0
4.98667e-16 -1.32617e-16 0
-2.41761e-15 9.79854e-16 0
-9.17432e-16 3.04297e-16 0
2.29388e-15 -9.36718e-16 0
1.12996e-15 -3.9095e-16 0
-2.2302e-15 9.12246e-16 0
-1.14703e-15 3.98404e-16 0
2.20837e-15 -9.00359e-16 0
1.03544e-15 -3.53159e-16 0
-2.28841e-15 9.24902e-16 0
-7.21827e-16 2.26727e-16 0
2.37454e-15 -9.46786e-16 0
2.23919e-16 -2.91472e-17 0
-2.39868e-15 9.4e-16 0
4.75401e-16 -2.4428e-16 0
2.20111e-15 -8.40971e-16 0
-1.29036e-15 5.53049e-16 0
-1.62236e-15 5.94352e-16 0
2.01372e-15 -8.16676e-16 0
5.71625e-16 -1.66699e-16 0
-2.28558e-15 8.87018e-16 0
8.02159e-16 -3.62224e-16 0
1.71694e-15 -6.35962e-16 0
-1.95764e-15 7.92666e-16 0
-2.44109e-16 3.34918e-17 0
2.09631e-15 -7.87837e-16 0
-1.48555e-15 6.03724e-16 0
-7.45888e-16 2.53302e-16 0
2.11252e-15 -8.29121e-16 0
-1.28288e-15 5.63798e-16 0
-7.73122e-16 2.13522e-16 0
2.04796e-15 -7.30852e-16 0
-1.47301e-15 5.39999e-16 0
-3.06997e-16 1.49299e-16 0
1.74527e-15 -7.52132e-16 0
-1.76047e-15 8.33285e-16 0
4.66505e-16 -4.08729e-16 0
1.12107e-15 -1.44933e-16 0
-1.93967e-15 4.10605e-16 0
1.5756e-15 -2.05098e-16 0
-3.9399e-16 -3.57476e-16 0
-8.2741e-16 9.965e-16 0
1.4115e-15 -1.46042e-15 0
-1.11438e-15 1.65992e-15 0
1.50405e-16 -1.68547e-15 0
1.01471e-15 1.73448e-15 0
-1.93429e-15 -2.01076e-15 0
2.37052e-15 2.65256e-15 0
-2.3452e-15 -3.713e-15 0
2.07304e-15 5.18677e-15 0
-1.84414e-15 -7.05822e-15 0
1.91452e-15 9.34893e-15 0
-2.44893e-15 -1.21476e-14 0
3.50863e-15 1.5625e-14 0
-5.09192e-15 -2.00317e-14 0
7.16639e-15 2.57014e-14 0
-9.74066e-15 -3.30437e-14 0
1.28523e-14 4.2574e-14 0
-1.66615e-14 -5.49098e-14 0
2.13325e-14 7.08563e-14 0
-2.72459e-14 -9.13776e-14 0
3.4659e-14 1.17792e-13 0
-4.42771e-14 -1.51637e-13 0
5.63666e-14 1.95114e-13 0
-7.22336e-14 -2.50657e-13 0
9.197e-14 3.21968e-13 0
-1.18108e-13 -4.12825e-13 0
1.50083e-13 5.29485e-13 0
-1.92992e-13 -6.77658e-13 0
2.44324e-13 8.68048e-13 0
-3.14731e-13 -1.10889e-12 0
3.96188e-13 1.41894e-12 0
-5.12359e-13 -1.80886e-12 0
6.39099e-13 2.31312e-12 0
-8.33677e-13 -2.94116e-12 0
1.02393e-12 3.76125e-12 0
-1.35798e-12 -4.76621e-12 0
1.62723e-12 6.10165e-12 0
-2.21597e-12 -7.69766e-12 0
2.56237e-12 9.87671e-12 0
-3.63446e-12 -1.23861e-11 0
3.94672e-12 1.59739e-11 0
-6.12666e-12 -1.98034e-11 0
5.70819e-12 2.59042e-11 0
-1.07094e-11 -3.14102e-11 0
1.99203e-15 -2.85397e-15 0
-4.89811e-16 -6.72242e-16 0
-3.88495e-16 -2.61905e-16 0
3.81072e-15 -1.74866e-15 0
2.27071e-15 -8.53138e-16 0
-4.98434e-15 2.05479e-15 0
-2.47243e-15 8.59963e-16 0
2.44806e-15 -1.07316e-15 0
3.85253e-15 -1.51374e-15 0
-3.45565e-16 2.61188e-16 0
-4.81191e-15 1.93121e-15 0
-5.65234e-16 1.02475e-16 0
3.94186e-15 -1.61134e-15 0
2.20175e-15 -7.79024e-16 0
-3.53581e-15 1.48039e-15 0
-2.98827e-15 1.10469e-15 0
2.88467e-15 -1.23251e-15 0
3.44338e-15 -1.30138e-15 0
-2.27416e-15 9.96249e-16 0
-3.75316e-15 1.4339e-15 0
1.9993e-15 -8.88511e-16 0
3.77314e-15 -1.44417e-15 0
-1.90006e-15 8.46142e-16 0
-3.71258e-15 1.41612e-15 0
2.12374e-15 -9.28152e-16 0
3.44648e-15 -1.30017e-15 0
-2.5689e-15 1.09186e-15 0
-2.9454e-15 1.08735e-15 0
3.18152e-15 -1.31376e-15 0
2.06875e-15 -7.25354e-16 0
-3.75639e-15 1.50886e-15 0
-7.34155e-16 1.90735e-16 0
3.97489e-15 -1.55384e-15 0
-1.00367e-15 4.87711e-16 0
-3.41576e-15 1.28538e-15 0
2.77148e-15 -1.14756e-15 0
1.7633e-15 -6.04005e-16 0
-3.7921e-15 1.49293e-15 0
7.84298e-16 -4.01267e-16 0
3.14559e-15 -1.16509e-15 0
-3.13613e-15 1.26184e-15 0
-5.53221e-16 1.30758e-16 0
3.51554e-15 -1.34393e-15 0
-2.59e-15 1.08064e-15 0
-9.945e-16 2.76637e-16 0
3.49183e-15 -1.29696e-15 0
-2.61687e-15 1.03421e-15 0
-5.79235e-16 1.80247e-16 0
3.15652e-15 -1.23271e-15 0
-3.0491e-15 1.28671e-15 0
5.6394e-16 -4.02789e-16 0
2.25748e-15 -6.61613e-16 0
-3.41413e-15 1.1203e-15 0
2.3073e-15 -6.99866e-16 0
1.30779e-16 -2.81395e-16 0
-2.30297e-15 1.22694e-15 0
3.00932e-15 -1.6695e-15 0
-2.02804e-15 1.50734e-15 0
2.47241e-17 -9.85134e-16 0
1.97119e-15 5.03163e-16 0
-3.13185e-15 -4.02113e-16 0
3.15304e-15 8.35761e-16 0
-2.26006e-15 -1.76371e-15 0
9.92292e-16 3.03111e-15 0
7.1709e-17 -4.47488e-15 0
-5.2201e-16 6.00741e-15 0
1.98202e-16 -7.65402e-15 0
8.37999e-16 9.55034e-15 0
-2.40139e-15 -1.19134e-14 0
4.28024e-15 1.50149e-14 0
-6.33215e-15 -1.91563e-14 0
8.5001e-15 2.46784e-14 0
-1.08669e-14 -3.19596e-14 0
1.35606e-14 4.14766e-14 0
-1.68744e-14 -5.37911e-14 0
2.10068e-14 6.96885e-14 0
-2.64734e-14 -9.00733e-14 0
3.33948e-14 1.16306e-13 0
-4.27375e-14 -1.49813e-13 0
5.42721e-14 1.92972e-13 0
-7.0084e-14 -2.47907e-13 0
8.88402e-14 3.18847e-13 0
-1.15371e-13 -4.08676e-13 0
1.45206e-13 5.25136e-13 0
-1.89696e-13 -6.71521e-13 0
2.36265e-13 8.62404e-13 0
-3.11127e-13 -1.10003e-12 0
3.82534e-13 1.41232e-12 0
-5.09003e-13 -1.79653e-12 0
6.16309e-13 2.30655e-12 0
-8.31397e-13 -2.92504e-12 0
9.8635e-13 3.75751e-12 0
-1.3607e-12 -4.74626e-12 0
1.55822e-12 6.11014e-12 0
-2.24718e-12 -7.66953e-12 0
2.40816e-12 9.92648e-12 0
-3.74551e-12 -1.23419e-11 0
3.67679e-12 1.60943e-11 0
-6.16229e-12 -1.98315e-11 0
5.51556e-12 2.60574e-11 0
-1.06224e-11 -3.15767e-11 0
-3.33961e-15 4.45704e-15 0
1.95148e-16 1.25764e-15 0
-3.37207e-15 2.02285e-15 0
-6.24655e-15 2.66154e-15 0
5.15605e-15 -2.19558e-15 0
7.52957e-15 -2.8515e-15 0
-2.24509e-15 1.13188e-15 0
-6.54971e-15 2.64606e-15 0
-2.88479e-15 9.699e-16 0
7.11624e-15 -2.96194e-15 0
4.51954e-15 -1.63212e-15 0
-4.94311e-15 2.12448e-15 0
-6.24106e-15 2.38487e-15 0
2.89585e-15 -1.33993e-15 0
7.2338e-15 -2.82448e-15 0
-1.37997e-15 7.44302e-16 0
-7.26021e-15 2.86939e-15 0
-9.46144e-17 -1.54818e-16 0
7.32303e-15 -2.91751e-15 0
8.12072e-16 -1.3396e-16 0
-7.13369e-15 2.84995e-15 0
-1.13479e-15 2.6622e-16 0
7.08338e-15 -2.82473e-15 0
8.69343e-16 -1.63345e-16 0
-7.05062e-15 2.79285e-15 0
-8.73868e-17 -1.43005e-16 0
6.97229e-15 -2.72987e-15 0
-1.24575e-15 6.61118e-16 0
-6.57503e-15 2.52884e-15 0
3.02859e-15 -1.34127e-15 0
5.50185e-15 -2.05613e-15 0
-4.96066e-15 2.05678e-15 0
-3.38649e-15 1.1793e-15 0
6.38851e-15 -2.5421e-15 0
1.46622e-16 1.06605e-16 0
-6.33075e-15 2.42625e-15 0
3.58402e-15 -1.53371e-15 0
3.90788e-15 -1.38873e-15 0
-6.16917e-15 2.43881e-15 0
6.924e-16 -4.23246e-16 0
5.47634e-15 -2.04925e-15 0
-5.18816e-15 2.10634e-15 0
-8.16397e-16 1.49039e-16 0
5.80398e-15 -2.17111e-15 0
-4.80402e-15 1.93154e-15 0
-7.90452e-16 1.76195e-16 0
5.49367e-15 -2.07868e-15 0
-5.25135e-15 2.13443e-15 0
6.47103e-16 -4.54828e-16 0
4.3339e-15 -1.47835e-15 0
-5.93457e-15 2.1826e-15 0
3.31802e-15 -1.25187e-15 0
1.37807e-15 -5.60051e-16 0
-4.98489e-15 2.05023e-15 0
5.45535e-15 -2.39906e-15 0
-2.83905e-15 1.57618e-15 0
-1.1702e-15 -1.98813e-16 0
4.46135e-15 -9.23599e-16 0
-5.6343e-15 1.22528e-15 0
4.49003e-15 -5.85743e-16 0
-1.84056e-15 -7.2933e-16 0
-1.06501e-15 2.2807e-15 0
3.12848e-15 -3.68124e-15 0
-3.75899e-15 4.73834e-15 0
2.93395e-15 -5.48533e-15 0
-1.04403e-15 6.13006e-15 0
-1.3527e-15 -6.96771e-15 0
3.74563e-15 8.30486e-15 0
-5.81166e-15 -1.04127e-14 0
7.44272e-15 1.35248e-14 0
-8.73757e-15 -1.78513e-14 0
9.90188e-15 2.36316e-14 0
-1.12501e-14 -3.11532e-14 0
1.30414e-14 4.08386e-14 0
-1.56619e-14 -5.32082e-14 0
1.92637e-14 6.90575e-14 0
-2.44116e-14 -8.92639e-14 0
3.10083e-14 1.1526e-13 0
-4.02486e-14 -1.48374e-13 0
5.13147e-14 1.91194e-13 0
-6.72118e-14 -2.4548e-13 0
8.47982e-14 3.16135e-13 0
-1.12075e-13 -4.04821e-13 0
1.38739e-13 5.21492e-13 0
-1.86482e-13 -6.65479e-13 0
2.2426e-13 8.58427e-13 0
-3.10464e-13 -1.09023e-12 0
3.57676e-13 1.41027e-12 0
-5.1822e-13 -1.77967e-12 0
5.62541e-13 2.31238e-12 0
-8.66483e-13 -2.89497e-12 0
8.74415e-13 3.78325e-12 0
-1.44462e-12 -4.69548e-12 0
1.34921e-12 6.17349e-12 0
-2.3971e-12 -7.59547e-12 0
2.03846e-12 1.00582e-11 0
-4.0535e-12 -1.22155e-11 0
2.76534e-12 1.64543e-11 0
-7.24173e-12 -1.94179e-11 0
3.40064e-12 2.68974e-11 0
-1.20181e-11 -3.10347e-11 0
5.05031e-15 -6.86498e-15 0
2.33838e-15 -3.09967e-15 0
9.42649e-15 -4.71649e-15 0
-1.11807e-15 4.3059e-16 0
-1.5393e-14 6.00833e-15 0
-1.38422e-15 5.80578e-17 0
1.01133e-14 -4.23851e-15 0
9.03012e-15 -3.39511e-15 0
-7.33122e-15 3.24906e-15 0
-1.20263e-14 4.65172e-15 0
3.34893e-15 -1.68981e-15 0
1.22963e-14 -4.88479e-15 0
1.52486e-15 -2.62127e-16 0
-1.24765e-14 5.05444e-15 0
-4.31928e-15 1.39602e-15 0
1.10078e-14 -4.52872e-15 0
6.78763e-15 -2.41407e-15 0
-9.93458e-15 4.14013e-15 0
-7.98965e-15 2.9171e-15 0
8.95689e-15 -3.76552e-15 0
8.56208e-15 -3.15755e-15 0
-8.61905e-15 3.6273e-15 0
-8.4064e-15 3.09316e-15 0
8.87026e-15 -3.70506e-15 0
7.57853e-15 -2.74853e-15 0
-9.67301e-15 3.98099e-15 0
-5.90115e-15 2.06015e-15 0
1.0723e-14 -4.32935e-15 0
3.17425e-15 -9.62662e-16 0
-1.14553e-14 4.5246e-15 0
6.89025e-16 -5.58338e-16 0
1.09803e-14 -4.22007e-15 0
-5.31135e-15 2.32558e-15 0
-8.26956e-15 3.03878e-15 0
9.45623e-15 -3.83613e-15 0
2.77636e-15 -8.11195e-16 0
-1.09384e-14 4.23508e-15 0
4.48006e-15 -1.98929e-15 0
7.52227e-15 -2.72797e-15 0
-1.00468e-14 3.99762e-15 0
7.17409e-16 -5.5323e-16 0
9.19913e-15 -3.41627e-15 0
-8.97185e-15 3.59809e-15 0
-4.8329e-16 -6.59575e-17 0
9.23267e-15 -3.44927e-15 0
-9.12678e-15 3.66306e-15 0
8.9572e-16 -6.37002e-16 0
7.89666e-15 -2.81536e-15 0
-1.01556e-14 3.88448e-15 0
4.679e-15 -1.94236e-15 0
3.97615e-15 -1.37844e-15 0
-9.68429e-15 3.72817e-15 0
9.06293e-15 -3.71936e-15 0
-3.05401e-15 1.60666e-15 0
-4.46846e-15 1.18384e-15 0
9.42252e-15 -3.07797e-15 0
-9.67764e-15 3.19985e-15 0
5.67131e-15 -1.64359e-15 0
3.66374e-16 -7.94351e-16 0
-5.78673e-15 3.12979e-15 0
8.68816e-15 -4.64205e-15 0
-8.44283e-15 5.08918e-15 0
5.58111e-15 -4.67811e-15 0
-1.29624e-15 3.8855e-15 0
-3.12003e-15 -3.24728e-15 0
6.68798e-15 3.20402e-15 0
-8.92257e-15 -4.03255e-15 0
9.80697e-15 5.85885e-15 0
-9.6616e-15 -8.71328e-15 0
8.95733e-15 1.261e-14 0
-8.20036e-15 -1.76028e-14 0
7.79531e-15 2.38519e-14 0
-8.10063e-15 -3.16233e-14 0
9.28407e-15 4.13682e-14 0
-1.16288e-14 -5.3639e-14 0
1.5097e-14 6.92945e-14 0
-2.02128e-14 -8.92183e-14 0
2.66285e-14 1.14926e-13 0
-3.57267e-14 -1.47663e-13 0
4.61706e-14 1.902e-13 0
-6.174e-14 -2.43991e-13 0
7.77904e-14 3.14489e-13 0
-1.04904e-13 -4.02368e-13 0
1.27939e-13 5.19397e-13 0
-1.77312e-13 -6.61592e-13 0
2.05541e-13 8.5683e-13 0
-3.01523e-13 -1.08339e-12 0
3.20086e-13 1.4127e-12 0
-5.21809e-13 -1.76444e-12 0
4.73625e-13 2.33068e-12 0
-9.28328e-13 -2.85282e-12 0
6.39525e-13 3.85301e-12 0
-1.69953e-12 -4.57173e-12 0
7.29906e-13 6.38327e-12 0
-3.13175e-12 -7.26862e-12 0
6.16918e-13 1.05512e-11 0
-5.51444e-12 -1.15493e-11 0
2.58064e-13 1.72581e-11 0
-9.28932e-12 -1.83053e-11 0
-2.57537e-12 2.86759e-11 0
-1.7854e-11 -2.76837e-11 0
-5.90847e-15 9.85898e-15 0
-7.84393e-15 6.57542e-15 0
-6.65361e-15 3.75985e-15 0
2.24881e-14 -8.70155e-15 0
1.22801e-14 -3.99919e-15 0
-1.36485e-14 6.08293e-15 0
-1.85287e-14 7.26576e-15 0
2.48774e-15 -1.594e-15 0
2.26222e-14 -9.07828e-15 0
3.96958e-15 -9.6497e-16 0
-1.8905e-14 7.79044e-15 0
-1.21746e-14 4.36255e-15 0
1.59766e-14 -6.77587e-15 0
1.61168e-14 -6.03768e-15 0
-1.12528e-14 4.96632e-15 0
-1.88927e-14 7.25102e-15 0
7.60779e-15 -3.55094e-15 0
1.99259e-14 -7.73668e-15 0
-4.89003e-15 2.47741e-15 0
-2.02626e-14 7.90864e-15 0
3.64579e-15 -1.97585e-15 0
2.01353e-14 -7.85702e-15 0
-3.88325e-15 2.05326e-15 0
-1.96967e-14 7.64308e-15 0
5.64503e-15 -2.72112e-15 0
1.86797e-14 -7.16472e-15 0
-8.79958e-15 3.91333e-15 0
-1.64927e-14 6.1982e-15 0
1.29162e-14 -5.43968e-15 0
1.23003e-14 -4.43603e-15 0
-1.69475e-14 6.86604e-15 0
-5.41218e-15 1.65103e-15 0
1.89845e-14 -7.44e-15 0
-3.92263e-15 1.99819e-15 0
-1.64888e-14 6.20095e-15 0
1.34299e-14 -5.55355e-15 0
7.65676e-15 -2.55426e-15 0
-1.83331e-14 7.1543e-15 0
5.88051e-15 -2.72294e-15 0
1.33437e-14 -4.85549e-15 0
-1.6803e-14 6.66876e-15 0
1.70092e-15 -1.10479e-15 0
1.48624e-14 -5.49245e-15 0
-1.61715e-14 6.44291e-15 0
2.01066e-15 -1.24099e-15 0
1.3693e-14 -4.94881e-15 0
-1.73021e-14 6.72161e-15 0
6.74149e-15 -2.95648e-15 0
8.80239e-15 -3.02873e-15 0
-1.76454e-14 6.71803e-15 0
1.42521e-14 -5.7856e-15 0
-1.7871e-15 1.23598e-15 0
-1.14854e-14 3.85299e-15 0
1.80322e-14 -6.54218e-15 0
-1.5051e-14 5.62273e-15 0
4.93407e-15 -1.87583e-15 0
7.00879e-15 -2.74351e-15 0
-1.56049e-14 6.26386e-15 0
1.79685e-14 -7.542e-15 0
-1.40748e-14 6.5164e-15 0
6.03364e-15 -3.95677e-15 0
3.2102e-15 9.81158e-16 0
-1.10583e-14 1.39428e-15 0
1.59398e-14 -2.52086e-15 0
-1.74448e-14 2.17405e-15 0
1.60678e-14 -4.5891e-16 0
-1.2796e-14 -2.34807e-15 0
8.71489e-15 5.95424e-15 0
-4.75044e-15 -1.01567e-14 0
1.53167e-15 1.49046e-14 0
5.84619e-16 -2.03028e-14 0
-1.50489e-15 2.66235e-14 0
1.2099e-15 -3.42547e-14 0
1.50835e-16 4.37598e-14 0
-2.64969e-15 -5.57628e-14 0
6.04623e-15 7.11889e-14 0
-1.08494e-14 -9.09168e-14 0
1.64981e-14 1.16529e-13 0
-2.46175e-14 -1.49168e-13 0
3.33263e-14 1.91789e-13 0
-4.72443e-14 -2.45514e-13 0
6.00984e-14 3.16385e-13 0
-8.49995e-14 -4.04095e-13 0
1.02143e-13 5.22131e-13 0
-1.49144e-13 -6.63738e-13 0
1.65654e-13 8.61558e-13 0
-2.60577e-13 -1.08619e-12 0
2.5292e-13 1.4223e-12 0
-4.61638e-13 -1.76715e-12 0
3.43777e-13 2.35355e-12 0
-8.50127e-13 -2.8465e-12 0
3.31521e-13 3.919e-12 0
-1.68448e-12 -4.49986e-12 0
-1.79004e-13 6.61223e-12 0
-3.69123e-12 -6.85486e-12 0
-2.39858e-12 1.13963e-11 0
-8.6944e-12 -9.75654e-12 0
-8.9267e-12 1.99045e-11 0
-1.87353e-11 -1.30153e-11 0
-1.9335e-11 3.24126e-11 0
-3.52372e-11 -1.59836e-11 0
3.73863e-15 -1.25247e-14 0
9.85017e-15 -8.71257e-15 0
-2.56003e-14 8.79387e-15 0
-3.62875e-14 1.28499e-14 0
1.46732e-14 -7.4926e-15 0
3.49815e-14 -1.41909e-14 0
1.18575e-14 -3.78655e-15 0
-3.60206e-14 1.49341e-14 0
-2.28526e-14 8.23727e-15 0
2.3701e-14 -1.02994e-14 0
3.35946e-14 -1.28906e-14 0
-1.28735e-14 6.1385e-15 0
-3.69522e-14 1.45156e-14 0
1.69018e-15 -1.70939e-15 0
3.73625e-14 -1.49192e-14 0
6.71843e-15 -1.67029e-15 0
-3.56895e-14 1.44142e-14 0
-1.24478e-14 3.99915e-15 0
3.3781e-14 -1.3739e-14 0
1.53827e-14 -5.20506e-15 0
-3.25342e-14 1.3257e-14 0
-1.57592e-14 5.36928e-15 0
3.24134e-14 -1.31549e-14 0
1.35845e-14 -4.49851e-15 0
-3.32573e-14 1.33665e-14 0
-8.66467e-15 2.53566e-15 0
3.42483e-14 -1.35633e-14 0
7.59309e-16 5.7658e-16 0
-3.37725e-14 1.31112e-14 0
9.88765e-15 -4.68434e-15 0
2.94762e-14 -1.1115e-14 0
-2.1666e-14 9.09061e-15 0
-1.89462e-14 6.70697e-15 0
3.0677e-14 -1.22249e-14 0
1.56657e-15 2.05528e-16 0
-3.08699e-14 1.17793e-14 0
1.85755e-14 -7.86694e-15 0
1.70809e-14 -5.94791e-15 0
-3.09834e-14 1.21298e-14 0
8.22327e-15 -3.94212e-15 0
2.32467e-14 -8.4623e-15 0
-2.91057e-14 1.1511e-14 0
5.08849e-15 -2.74547e-15 0
2.34117e-14 -8.48236e-15 0
-2.97567e-14 1.16325e-14 0
9.92114e-15 -4.5258e-15 0
1.78381e-14 -6.21591e-15 0
-3.1257e-14 1.1939e-14 0
2.14794e-14 -8.81486e-15 0
3.04185e-15 -3.11301e-16 0
-2.53131e-14 9.04255e-15 0
3.20191e-14 -1.21061e-14 0
-2.06147e-14 8.22775e-15 0
-1.43165e-15 -2.24723e-17 0
2.25381e-14 -8.16679e-15 0
-3.34226e-14 1.27289e-14 0
3.07008e-14 -1.22306e-14 0
-1.68801e-14 7.49292e-15 0
-2.07366e-15 -7.10808e-16 0
1.97718e-14 -5.69332e-15 0
-3.16392e-14 9.93725e-15 0
3.58037e-14 -1.12411e-14 0
-3.28175e-14 9.7402e-15 0
2.47407e-14 -6.14506e-15 0
-1.41241e-14 1.35451e-15 0
3.23565e-15 3.84447e-15 0
6.34405e-15 -8.93866e-15 0
-1.38047e-14 1.37288e-14 0
1.89702e-14 -1.82869e-14 0
-2.20947e-14 2.28886e-14 0
2.3625e-14 -2.79347e-14 0
-2.408e-14 3.392e-14 0
2.38675e-14 -4.13835e-14 0
-2.33896e-14 5.09718e-14 0
2.27481e-14 -6.33607e-14 0
-2.22864e-14 7.94977e-14 0
2.16222e-14 -1.00291e-13 0
-2.14809e-14 1.27361e-13 0
2.0369e-14 -1.61873e-13 0
-2.06554e-14 2.06931e-13 0
1.7525e-14 -2.63542e-13 0
-1.88276e-14 3.38279e-13 0
9.43329e-15 -4.29998e-13 0
-1.44426e-14 5.54057e-13 0
-1.26802e-14 -7.00148e-13 0
-5.58098e-15 9.07107e-13 0
-7.01609e-14 -1.13344e-12 0
8.35502e-15 1.48215e-12 0
-2.14499e-13 -1.81591e-12 0
1.83172e-14 2.41327e-12 0
-5.67245e-13 -2.85922e-12 0
-3.08065e-14 3.91007e-12 0
-1.41435e-12 -4.36837e-12 0
-4.0228e-13 6.30747e-12 0
-3.49098e-12 -6.28298e-12 0
-2.3376e-12 1.02522e-11 0
-9.26741e-12 -7.64154e-12 0
-1.19322e-11 1.77935e-11 0
-2.99232e-11 -3.01927e-12 0
-5.58327e-11 3.72264e-11 0
-7.53701e-11 1.52828e-11 0
1.63775e-15 1.36451e-14 0
1.38117e-14 -1.62895e-16 0
7.42661e-14 -2.67466e-14 0
9.84415e-15 -4.38488e-16 0
-5.02804e-14 2.15947e-14 0
-5.10278e-14 1.93222e-14 0
3.24477e-14 -1.46498e-14 0
6.04425e-14 -2.34762e-14 0
-4.02094e-15 3.5258e-15 0
-6.27395e-14 2.51783e-14 0
-1.86023e-14 5.60151e-15 0
5.51916e-14 -2.27231e-14 0
3.57379e-14 -1.26804e-14 0
-4.44725e-14 1.88233e-14 0
-4.61929e-14 1.71305e-14 0
3.37159e-14 -1.47489e-14 0
5.15747e-14 -1.95108e-14 0
-2.54335e-14 1.15404e-14 0
-5.34564e-14 2.0409e-14 0
2.07693e-14 -9.69135e-15 0
5.31471e-14 -2.03289e-14 0
-2.01718e-14 9.39764e-15 0
-5.1153e-14 1.94726e-14 0
2.35889e-14 -1.06329e-14 0
4.70645e-14 -1.76928e-14 0
-3.04674e-14 1.31489e-14 0
-3.95907e-14 1.45148e-14 0
3.93623e-14 -1.6329e-14 0
2.69477e-14 -9.3077e-15 0
-4.72831e-14 1.89567e-14 0
-7.93262e-15 1.71949e-15 0
4.92593e-14 -1.90883e-14 0
-1.60398e-14 7.52605e-15 0
-3.92169e-14 1.44755e-14 0
3.83698e-14 -1.5706e-14 0
1.37664e-14 -4.08681e-15 0
-4.67068e-14 1.80312e-14 0
2.10409e-14 -9.3127e-15 0
2.89057e-14 -1.01983e-14 0
-4.49071e-14 1.7669e-14 0
1.18892e-14 -5.83617e-15 0
3.28625e-14 -1.17956e-14 0
-4.46304e-14 1.75283e-14 0
1.45145e-14 -6.78885e-15 0
2.82417e-14 -9.86717e-15 0
-4.70568e-14 1.81216e-14 0
2.84527e-14 -1.19686e-14 0
1.15507e-14 -3.12315e-15 0
-4.37407e-14 1.6041e-14 0
4.7488e-14 -1.8445e-14 0
-2.21916e-14 9.52113e-15 0
-1.59658e-14 4.9125e-15 0
4.60107e-14 -1.68599e-14 0
-5.38055e-14 2.0674e-14 0
3.7345e-14 -1.52603e-14 0
-5.01644e-15 3.56775e-15 0
-3.01834e-14 9.54959e-15 0
5.6646e-14 -1.96337e-14 0
-6.78182e-14 2.4077e-14 0
6.2914e-14 -2.24517e-14 0
-4.54621e-14 1.59927e-14 0
2.0991e-14 -6.72807e-15 0
5.05896e-15 -3.32263e-15 0
-2.86335e-14 1.26557e-14 0
4.75045e-14 -2.04644e-14 0
-6.10844e-14 2.65783e-14 0
6.99267e-14 -3.12805e-14 0
-7.51801e-14 3.51057e-14 0
7.81451e-14 -3.86776e-14 0
-7.99977e-14 4.26128e-14 0
8.16494e-14 -4.74782e-14 0
-8.37409e-14 5.3804e-14 0
8.66401e-14 -6.21025e-14 0
-9.05742e-14 7.29411e-14 0
9.55418e-14 -8.69422e-14 0
-1.01645e-13 1.04944e-13 0
1.08565e-13 -1.27855e-13 0
-1.16673e-13 1.57129e-13 0
1.24934e-13 -1.94056e-13 0
-1.35027e-13 2.41398e-13 0
1.43521e-13 -3.00568e-13 0
-1.57014e-13 3.77447e-13 0
1.63677e-13 -4.71825e-13 0
-1.87553e-13 5.98049e-13 0
1.87671e-13 -7.47039e-13 0
-2.47324e-13 9.58116e-13 0
2.26945e-13 -1.18724e-12 0
-4.03065e-13 1.5499e-12 0
3.14353e-13 -1.88059e-12 0
-8.4095e-13 2.52583e-12 0
5.18807e-13 -2.9307e-12 0
-2.01915e-12 4.11945e-12 0
9.34512e-13 -4.37701e-12 0
-4.89651e-12 6.59779e-12 0
1.56977e-12 -5.90999e-12 0
-1.08843e-11 9.83151e-12 0
2.18967e-12 -6.12421e-12 0
-1.9428e-11 1.11896e-11 0
3.2847e-12 -1.09141e-12 0
-2.35522e-11 7.71223e-13 0
-8.96083e-11 5.98632e-11 0
-2.9014e-15 -1.32832e-14 0
-8.98287e-14 3.03747e-14 0
-1.46114e-14 6.14785e-16 0
5.33538e-14 -2.41806e-14 0
5.47015e-14 -2.12449e-14 0
-3.07076e-14 1.46033e-14 0
-6.69183e-14 2.67436e-14 0
1.69706e-15 -3.05783e-15 0
6.93122e-14 -2.86397e-14 0
2.39163e-14 -7.59432e-15 0
-6.20677e-14 2.63626e-14 0
-4.39642e-14 1.61152e-14 0
5.07163e-14 -2.21606e-14 0
5.7611e-14 -2.20476e-14 0
-3.89185e-14 1.7586e-14 0
-6.6097e-14 2.57996e-14 0
2.94697e-14 -1.38307e-14 0
7.10387e-14 -2.79828e-14 0
-2.40596e-14 1.16337e-14 0
-7.38065e-14 2.91365e-14 0
2.37465e-14 -1.14468e-14 0
7.49361e-14 -2.94772e-14 0
-2.92189e-14 1.35376e-14 0
-7.37452e-14 2.87423e-14 0
4.07417e-14 -1.79666e-14 0
6.8043e-14 -2.60839e-14 0
-5.75304e-14 2.43412e-14 0
-5.41488e-14 2.01049e-14 0
7.64056e-14 -3.13015e-14 0
2.78801e-14 -9.28768e-15 0
-9.00679e-14 3.58889e-14 0
1.25093e-14 -6.81222e-15 0
8.64089e-14 -3.33884e-14 0
-6.07421e-14 2.54121e-14 0
-5.23541e-14 1.89794e-14 0
9.67532e-14 -3.84268e-14 0
-1.41703e-14 7.4948e-15 0
-8.88886e-14 3.37525e-14 0
8.61532e-14 -3.47959e-14 0
1.76348e-14 -4.82824e-15 0
-1.04633e-13 4.00045e-14 0
8.24096e-14 -3.34092e-14 0
2.39641e-14 -7.13114e-15 0
-1.09939e-13 4.16612e-14 0
9.78558e-14 -3.90358e-14 0
-1.26309e-15 2.88972e-15 0
-9.8908e-14 3.63244e-14 0
1.26919e-13 -4.89381e-14 0
-6.63428e-14 2.74314e-14 0
-3.86749e-14 1.22535e-14 0
1.21941e-13 -4.49978e-14 0
-1.38024e-13 5.29445e-14 0
8.25666e-14 -3.36462e-14 0
1.4438e-14 -2.10234e-15 0
-1.10292e-13 3.83139e-14 0
1.70604e-13 -6.18252e-14 0
-1.80233e-13 6.65982e-14 0
1.43053e-13 -5.37862e-14 0
-7.48173e-14 2.91221e-14 0
-5.5069e-15 3.38286e-16 0
8.22132e-14 -2.86879e-14 0
-1.45855e-13 5.23404e-14 0
1.93284e-13 -7.00784e-14 0
-2.26014e-13 8.24532e-14 0
2.48122e-13 -9.10028e-14 0
-2.64491e-13 9.75875e-14 0
2.79686e-13 -1.03968e-13 0
-2.97456e-13 1.11617e-13 0
3.20688e-13 -1.21707e-13 0
-3.51596e-13 1.3519e-13 0
3.92013e-13 -1.52913e-13 0
-4.43665e-13 1.75739e-13 0
5.08403e-13 -2.04652e-13 0
-5.8838e-13 2.40837e-13 0
6.86146e-13 -2.85755e-13 0
-8.0476e-13 3.41212e-13 0
9.47711e-13 -4.09382e-13 0
-1.11908e-12 4.92917e-13 0
1.32293e-12 -5.94816e-13 0
-1.56398e-12 7.18742e-13 0
1.84497e-12 -8.68175e-13 0
-2.17006e-12 1.0478e-12 0
2.53393e-12 -1.25958e-12 0
-2.93878e-12 1.50923e-12 0
3.34946e-12 -1.78952e-12 0
-3.77194e-12 2.10961e-12 0
4.07146e-12 -2.42629e-12 0
-4.31072e-12 2.77059e-12 0
4.02793e-12 -2.9725e-12 0
-3.61589e-12 3.18048e-12 0
1.53278e-12 -2.79236e-12 0
3.38841e-13 2.48763e-12 0
-7.12954e-12 -2.12513e-13 0
1.10497e-11 -1.21132e-12 0
-2.91508e-11 8.66071e-12 0
3.20629e-11 -1.13244e-11 0
-7.62211e-11 3.19456e-11 0
5.79151e-11 -3.15482e-11 0
-1.60651e-10 8.3846e-11 0
6.21039e-11 -6.53644e-11 0
-5.60821e-11 9.02428e-11 0
-4.14183e-15 1.22684e-14 0
1.54495e-13 -5.43794e-14 0
-2.07269e-13 8.87663e-14 0
-3.35407e-13 1.3009e-13 0
5.07042e-14 -2.93346e-14 0
3.77153e-13 -1.51739e-13 0
1.41277e-13 -4.80841e-14 0
-3.16223e-13 1.30758e-13 0
-2.85757e-13 1.07537e-13 0
2.03442e-13 -8.81281e-14 0
3.719e-13 -1.44243e-13 0
-7.25682e-14 3.71801e-14 0
-4.04115e-13 1.59351e-13 0
-4.84656e-14 1.06121e-14 0
3.99385e-13 -1.5931e-13 0
1.45292e-13 -4.91647e-14 0
-3.77409e-13 1.51841e-13 0
-2.13538e-13 7.6428e-14 0
3.55186e-13 -1.43686e-13 0
2.54144e-13 -9.25697e-14 0
-3.44886e-13 1.39676e-13 0
-2.68695e-13 9.81305e-14 0
3.53398e-13 -1.425e-13 0
2.55953e-13 -9.26619e-14 0
-3.8182e-13 1.52487e-13 0
-2.10095e-13 7.40689e-14 0
4.23516e-13 -1.66885e-13 0
1.21563e-13 -3.90076e-14 0
-4.60308e-13 1.78491e-13 0
1.73807e-14 -1.48907e-14 0
4.58818e-13 -1.74478e-13 0
-1.99967e-13 8.41405e-14 0
-3.73113e-13 1.37782e-13 0
3.85323e-13 -1.52177e-13 0
1.65498e-13 -5.5456e-14 0
-4.84411e-13 1.84803e-13 0
1.4601e-13 -6.33252e-14 0
3.82425e-13 -1.39991e-13 0
-4.30629e-13 1.66994e-13 0
-3.71608e-14 5.87805e-15 0
4.59183e-13 -1.70113e-13 0
-3.77293e-13 1.47261e-13 0
-9.39017e-14 2.72309e-14 0
4.66382e-13 -1.71824e-13 0
-4.00591e-13 1.54494e-13 0
-1.41519e-14 -2.81417e-15 0
4.09897e-13 -1.47727e-13 0
-4.83881e-13 1.81634e-13 0
2.11521e-13 -8.5486e-14 0
1.93271e-13 -6.39355e-14 0
-4.68006e-13 1.6913e-13 0
4.7031e-13 -1.7525e-13 0
-2.28006e-13 9.01533e-14 0
-1.18603e-13 3.58316e-14 0
4.13265e-13 -1.45268e-13 0
-5.5591e-13 2.00558e-13 0
5.25184e-13 -1.92791e-13 0
-3.60658e-13 1.35635e-13 0
1.28445e-13 -5.28876e-14 0
1.09247e-13 -3.27177e-14 0
-3.11003e-13 1.0582e-13 0
4.59535e-13 -1.59794e-13 0
-5.56514e-13 1.94951e-13 0
6.14461e-13 -2.15622e-13 0
-6.49541e-13 2.27532e-13 0
6.7689e-13 -2.36078e-13 0
-7.08519e-13 2.45531e-13 0
7.5306e-13 -2.58924e-13 0
-8.16511e-13 2.783e-13 0
9.03295e-13 -3.05073e-13 0
-1.01727e-12 3.40388e-13 0
1.16253e-12 -3.85387e-13 0
-1.34392e-12 4.41396e-13 0
1.56745e-12 -5.10037e-13 0
-1.84052e-12 5.93292e-13 0
2.17202e-12 -6.93525e-13 0
-2.57239e-12 8.13463e-13 0
3.05348e-12 -9.56142e-13 0
-3.62812e-12 1.12474e-12 0
4.30944e-12 -1.32236e-12 0
-5.10902e-12 1.55147e-12 0
6.03468e-12 -1.8133e-12 0
-7.08502e-12 2.10624e-12 0
8.24367e-12 -2.42456e-12 0
-9.46513e-12 2.7543e-12 0
1.06611e-11 -3.07064e-12 0
-1.16701e-11 3.32946e-12 0
1.22216e-11 -3.46013e-12 0
-1.18954e-11 3.35659e-12 0
9.9999e-12 -2.84515e-12 0
-5.65157e-12 1.72566e-12 0
-2.76681e-12 4.07268e-13 0
1.659e-11 -3.77132e-12 0
-3.94652e-11 9.34111e-12 0
7.15082e-11 -1.6675e-11 0
-1.21204e-10 2.83966e-11 0
1.78599e-10 -4.03373e-11 0
-2.66124e-10 6.07507e-11 0
3.26025e-10 -6.90688e-11 0
-4.72604e-10 1.12121e-10 0
4.67388e-12 8.50919e-11 0
CELL_DATA 10000
VECTORS stress float
-5.68448e-12 1.32898e-11 -1.80007e-11
-1.28933e-10 -4.65625e-11 2.69766e-11
-4.23117e-11 -7.35139e-11 3.99321e-11
2.44836e-10 1.08463e-10 -1.05062e-10
1.32825e-10 1.4761e-10 -2.659e-11
-1.65915e-10 -1.70004e-11 -9.75528e-13
-4.24013e-10 -2.01824e-10 1.45352e-10
-1.69624e-10 -1.98343e-10 2.83166e-11
8.79892e-11 1.26525e-11 -3.3895e-11
2.28461e-10 4.72419e-11 3.01755e-11
5.05247e-10 2.45303e-10 -2.24213e-10
1.19808e-10 1.8564e-10 1.90786e-11
-8.49752e-11 -5.71931e-11 1.15486e-11
-1.70457e-10 -5.44775e-11 2.18574e-11
-1.80555e-10 -1.02556e-10 1.02158e-10
4.44441e-11 -6.24839e-12 -1.21063e-10
-1.46013e-10 4.20972e-11 1.10552e-10
-8.72314e-11 -2.12001e-10 1.54203e-12
1.86403e-10 2.0033e-10 4.39195e-11
1.8166e-11 -1.50217e-10 -2.23103e-10
-1.41274e-10 2.09059e-10 4.68349e-10
3.23382e-10 -4.86125e-10 -6.94751e-10
8.15169e-11 9.90281e-10 8.89921e-10
4.2251e-10 -1.22803e-09 -1.40452e-09
-1.83722e-10 2.2916e-09 1.81514e-09
-3.02277e-10 -3.59354e-09 -2.54645e-09
-3.29001e-11 5.15296e-09 4.1061e-09
-1.59933e-10 -7.91477e-09 -6.49433e-09
-4.82368e-10 1.19101e-08 1.02974e-08
7.32123e-11 -1.8746e-08 -1.57372e-08
-3.55639e-11 2.84655e-08 2.42649e-08
5.95572e-10 -4.32969e-08 -3.72301e-08
5.9291e-10 6.63331e-08 5.65819e-08
-3.81515e-11 -9.98975e-08 -8.63662e-08
1.28112e-09 1.51634e-07 1.3079e-07
-3.61973e-09 -2.28525e-07 -1.97968e-07
4.92345e-09 3.4252e-07 2.99464e-07
-1.00092e-08 -5.13864e-07 -4.50655e-07
1.78108e-08 7.67919e-07 6.76238e-07
-3.11895e-08 -1.14422e-06 -1.01185e-06
5.28533e-08 1.69974e-06 1.5099e-06
-8.80418e-08 -2.51777e-06 -2.24668e-06
1.44531e-07 3.71854e-06 3.33351e-06
-2.33631e-07 -5.47633e-06 -4.93164e-06
3.76344e-07 8.04253e-06 7.27436e-06
-5.978e-07 -1.17754e-05 -1.06998e-05
9.41895e-07 1.71916e-05 1.56928e-05
-1.47363e-06 -2.50263e-05 -2.2949e-05
2.28687e-06 3.63255e-05 3.34633e-05
-3.53003e-06 -5.25743e-05 -4.86527e-05
5.41051e-06 7.58679e-05 7.0533e-05
-8.24604e-06 -0.000109164 -0.000101957
1.24972e-05 0.000156616 0.000146953
-1.88391e-05 -0.000224038 -0.000211191
2.82574e-05 0.000319553 0.000302626
-4.21725e-05 -0.000454452 -0.000432386
6.26486e-05 0.00064442 0.000615983
-9.26306e-05 -0.000911109 -0.000874981
0.000136365 0.00128442 0.00123924
-0.000199851 -0.00180534 -0.00175002
0.000291699 0.00253019 0.00246409
-0.00042391 -0.0035355 -0.00345938
0.000613689 0.00492606 0.00484239
-0.000884616 -0.00684282 -0.00675849
0.00127062 0.00947853 0.00940493
-0.00181717 -0.0130891 -0.0130494
0.00259041 0.0180251 0.0180524
-0.00367616 -0.0247438 -0.0249007
0.00520237 0.0338776 0.0342444
-0.00732694 -0.0462283 -0.0469578
0.0102964 0.0629298 0.0641968
-0.0143919 -0.0853556 -0.087513
0.02009 0.115538 0.118932
-0.0278677 -0.155754 -0.161178
0.0386579 0.209679 0.217746
-0.0532072 -0.280884 -0.293368
0.0733858 0.37618 0.39397
-0.100187 -0.500604 -0.527719
0.137487 0.667324 0.704445
-0.186088 -0.881703 -0.938202
0.254291 1.17088 1.24485
-0.341049 -1.53452 -1.64865
0.464418 2.03293 2.17418
-0.61715 -2.63859 -2.86382
0.837226 3.49506 3.7534
-1.10451 -4.48116 -4.91836
1.48689 5.95484 6.40594
-1.96357 -7.51412 -8.35281
2.58494 10.0617 10.8124
-3.50597 -12.4403 -14.0294
4.32038 16.8513 18.0624
-6.45113 -20.3685 -23.3027
6.58911 27.8236 29.9282
-12.8597 -33.183 -38.2769
7.47992 44.2345 49.5352
-29.4678 -54.465 -62.3179
-3.84948 61.4405 83.5628
-77.5075 -91.2302 -101.002
-82.6839 39.5151 147.726
-210.117 -159.997 -154.703
-5.64544e-12 4.57363e-12 -2.12244e-12
5.92408e-12 8.92495e-11 -8.45822e-11
-3.9979e-10 -2.15442e-10 1.76552e-10
-2.32507e-10 -2.37569e-10 1.49778e-10
3.19441e-10 1.16725e-10 -3.82272e-11
6.61474e-10 3.16493e-10 -2.45345e-10
3.26883e-10 2.45621e-10 -1.6471e-10
-3.40363e-10 -2.19451e-10 1.72573e-10
-3.88842e-10 -7.75116e-12 -4.11447e-11
-9.21959e-10 -3.15955e-10 2.63366e-10
-5.79359e-10 -4.08378e-10 2.41409e-10
2.65862e-10 2.04032e-10 -1.34806e-10
2.73788e-10 9.17816e-12 3.29873e-11
4.8393e-10 2.86406e-10 -3.03186e-10
-6.361e-11 -7.78359e-11 2.01001e-10
2.09331e-10 -1.17096e-10 -9.65928e-11
3.91824e-10 3.56127e-10 4.3545e-11
3.8657e-11 -1.56499e-10 -3.11788e-10
-3.35774e-10 1.73339e-10 5.39495e-10
2.44048e-10 -3.32011e-10 -8.33133e-10
-6.39817e-10 8.31817e-10 1.01708e-09
-4.50089e-10 -1.98096e-09 -1.06184e-09
-4.03662e-10 2.81941e-09 1.66989e-09
-5.53847e-10 -5.05641e-09 -2.00926e-09
1.52504e-09 7.61469e-09 3.21956e-09
-3.69672e-10 -1.06948e-08 -5.6955e-09
1.47139e-09 1.64752e-08 8.87796e-09
-9.80038e-10 -2.48217e-08 -1.4079e-08
2.8169e-09 3.87136e-08 2.12564e-08
-4.45808e-09 -5.90003e-08 -3.26965e-08
5.73177e-09 8.97053e-08 5.00498e-08
-1.16563e-08 -1.37182e-07 -7.56554e-08
1.59449e-08 2.06787e-07 1.15595e-07
-2.61632e-08 -3.1283e-07 -1.74863e-07
4.16416e-08 4.70723e-07 2.64546e-07
-6.07734e-08 -7.05294e-07 -3.99683e-07
9.69265e-08 1.0573e-06 5.99714e-07
-1.48836e-07 -1.57851e-06 -8.98498e-07
2.29104e-07 2.34982e-06 1.3425e-06
-3.49663e-07 -3.48731e-06 -2.00051e-06
5.32733e-07 5.1612e-06 2.97225e-06
-8.08961e-07 -7.61639e-06 -4.40357e-06
1.22265e-06 1.12075e-05 6.50518e-06
-1.84606e-06 -1.64458e-05 -9.58154e-06
2.77193e-06 2.40604e-05 1.40739e-05
-4.14969e-06 -3.51008e-05 -2.06121e-05
6.19454e-06 5.10608e-05 3.01004e-05
-9.21e-06 -7.40625e-05 -4.38305e-05
1.36569e-05 0.000107119 6.36381e-05
-2.01719e-05 -0.000154477 -9.21333e-05
2.97028e-05 0.000222132 0.000133
-4.35903e-05 -0.000318495 -0.000191439
6.3762e-05 0.00045534 0.000274756
-9.29642e-05 -0.000649096 -0.000393191
0.000135097 0.000922621 0.00056104
-0.000195688 -0.0013076 -0.000798218
0.000282541 0.00184784 0.00113234
-0.000406616 -0.00260369 -0.00160166
0.000583317 0.00365809 0.00225884
-0.000834096 -0.00512447 -0.00317641
0.00118893 0.00715789 0.0044535
-0.00168922 -0.00996885 -0.00622594
0.00239257 0.0138437 0.00867787
-0.00337776 -0.0191679 -0.0120604
0.00475404 0.0264636 0.016711
-0.00666912 -0.0364277 -0.0230886
0.00932783 0.0500013 0.0318023
-0.0130027 -0.0684258 -0.0436814
0.0180738 0.0933796 0.0598086
-0.0250354 -0.127041 -0.0816673
0.0345866 0.172374 0.111148
-0.0476057 -0.233135 -0.150885
0.0653729 0.31453 0.204107
-0.089408 -0.422894 -0.275481
0.12206 0.567355 0.370352
-0.165859 -0.758287 -0.497035
0.22517 1.01182 0.663967
-0.303933 -1.34413 -0.88625
0.410492 1.78437 1.17604
-0.550201 -2.35551 -1.56187
0.739774 3.11259 2.05775
-0.983979 -4.08127 -2.7211
1.31854 5.37268 3.55614
-1.73847 -6.99175 -4.68823
2.32572 9.18249 6.06801
-3.03414 -11.8421 -7.99308
4.06303 15.5534 10.2184
-5.23093 -19.8252 -13.4996
7.03636 26.1416 16.9698
-8.9118 -32.7834 -22.6247
12.0806 43.6623 27.7746
-15.0264 -53.4632 -37.7325
20.4714 72.5197 44.8279
-25.1571 -85.7489 -62.8501
33.5586 119.738 71.6472
-42.3345 -135.858 -104.518
50.7962 199.064 114.326
-78.8726 -228.119 -169.246
75.4263 367.508 184.148
-234.382 -526.317 -244.525
9.67416e-11 -9.22681e-11 8.275e-11
6.41902e-10 8.47581e-11 -2.40613e-11
9.82301e-10 6.46828e-10 -4.3651e-10
-2.20724e-10 3.26837e-12 -1.62838e-11
-9.69587e-10 -3.1338e-10 1.54306e-10
-8.99378e-10 -7.43506e-10 5.4417e-10
7.18467e-10 4.62415e-10 -3.23464e-10
6.24982e-10 4.14534e-10 -2.6478e-10
5.43024e-10 2.60635e-10 -1.76491e-10
6.20046e-10 2.77757e-10 -2.18021e-10
-3.06059e-10 -4.58958e-10 4.36643e-10
-1.93145e-10 5.84827e-11 -2.06572e-10
-7.79407e-10 -4.47684e-10 4.611e-10
1.2763e-10 -9.5773e-11 -1.15204e-10
3.53332e-10 3.88274e-10 1.4602e-11
-1.80944e-10 -1.39692e-10 -3.16486e-10
-6.88787e-10 2.04981e-10 4.18998e-10
-1.35374e-10 -1.97577e-10 -8.43862e-10
-1.06173e-09 8.91693e-11 1.3596e-09
3.61592e-10 -1.46993e-09 -1.08707e-09
8.19582e-10 2.88868e-09 1.23361e-09
2.64494e-10 -4.11026e-09 -2.01293e-09
1.37233e-09 6.82709e-09 2.82387e-09
-1.21288e-09 -1.03219e-08 -4.50044e-09
4.75774e-10 1.50461e-08 7.60552e-09
-2.03814e-09 -2.30372e-08 -1.20015e-08
1.66496e-09 3.49319e-08 1.87382e-08
-4.31899e-09 -5.43138e-08 -2.81389e-08
6.60978e-09 8.31881e-08 4.26818e-08
-9.96068e-09 -1.26017e-07 -6.53939e-08
1.74336e-08 1.91532e-07 9.9184e-08
-2.46231e-08 -2.88248e-07 -1.51279e-07
3.90247e-08 4.34496e-07 2.28855e-07
-6.10417e-08 -6.53763e-07 -3.4469e-07
9.16229e-08 9.78048e-07 5.19679e-07
-1.4413e-07 -1.4626e-06 -7.7886e-07
2.19933e-07 2.17989e-06 1.1645e-06
-3.36192e-07 -3.23905e-06 -1.73678e-06
5.10857e-07 4.79957e-06 2.58265e-06
-7.76677e-07 -7.09188e-06 -3.82983e-06
1.17309e-06 1.04487e-05 5.66324e-06
-1.76847e-06 -1.53525e-05 -8.34932e-06
2.65906e-06 2.24941e-05 1.22741e-05
-3.97912e-06 -3.28622e-05 -1.79935e-05
5.93984e-06 4.78731e-05 2.63027e-05
-8.83653e-06 -6.95428e-05 -3.83381e-05
1.30993e-05 0.000100732 5.57207e-05
-1.93621e-05 -0.000145498 -8.075e-05
2.85174e-05 0.000209553 0.000116687
-4.18728e-05 -0.000300948 -0.000168132
6.12837e-05 0.000430969 0.000241557
-8.94034e-05 -0.000615396 -0.000346044
0.000130012 0.000876232 0.000494288
-0.000188458 -0.00124404 -0.000703992
0.000272313 0.00176118 0.000999746
-0.000392228 -0.00248611 -0.00141562
0.000563165 0.00349936 0.00199862
-0.000806039 -0.00491139 -0.00281349
0.00115004 0.00687336 0.00394896
-0.00163566 -0.00959133 -0.00552646
0.0023191 0.0133456 0.00771132
-0.00327773 -0.0185157 -0.0107283
0.00461831 0.0256148 0.0148815
-0.00648663 -0.0353331 -0.0205816
0.00908291 0.0485988 0.0283802
-0.0126781 -0.0666509 -0.0390184
0.0176429 0.0911478 0.0534828
-0.0244737 -0.124285 -0.0730934
0.0338492 0.16899 0.0995907
-0.0466645 -0.2291 -0.135296
0.0641489 0.30973 0.183233
-0.0878908 -0.417492 -0.247436
0.120098 0.56123 0.333077
-0.163534 -0.752163 -0.447089
0.222145 1.00547 0.598153
-0.300624 -1.33985 -0.798093
0.406032 1.78128 1.06114
-0.546063 -2.36013 -1.40741
0.733502 3.12113 1.85949
-0.980229 -4.11176 -2.45179
1.31005 5.41042 3.2183
-1.7392 -7.08644 -4.21925
2.31423 9.28267 5.50064
-3.05058 -12.0855 -7.17301
4.04616 15.773 9.28252
-5.29053 -20.4034 -12.0491
7.00873 26.5694 15.4615
-9.07267 -34.1144 -20.0072
12.0467 44.4411 25.4057
-15.381 -56.5289 -32.8697
20.5944 74.0389 41.1307
-25.7659 -93.0102 -53.507
35.198 123.805 65.3489
-42.8337 -153.21 -86.3391
61.2881 212.275 100.513
-72.9484 -259.59 -137.331
114.566 389.329 143.627
-136.688 -469.556 -212.177
231.725 766.648 170.182
-242.025 -816.179 -315.22
-3.21396e-10 4.83074e-12 -2.24557e-12
-1.32709e-09 -6.33458e-10 3.84214e-10
-5.46701e-10 -2.2742e-10 1.64657e-10
1.02763e-09 6.22298e-10 -3.07741e-10
1.27365e-09 4.44172e-10 -3.16036e-10
-6.4324e-11 -7.56989e-11 1.07328e-10
-1.08176e-09 -4.9867e-10 2.43443e-10
-4.50986e-10 2.76231e-10 -3.1728e-10
-7.95443e-10 -7.42446e-10 7.79076e-10
7.27713e-10 2.96796e-10 -3.97591e-10
2.19057e-10 -1.90514e-10 2.03841e-10
1.02336e-09 4.10191e-10 -4.31523e-10
4.96835e-10 8.35207e-10 -3.9039e-10
-1.31549e-09 -7.84266e-10 2.60774e-10
-9.112e-10 -3.16599e-10 6.55467e-10
6.81238e-10 1.77559e-10 -8.14344e-10
3.47357e-10 4.54221e-10 9.41425e-10
1.8486e-09 -4.7971e-10 -1.38208e-09
8.77135e-10 2.54239e-09 1.01181e-09
-9.368e-10 -4.26241e-09 -1.42135e-09
8.20011e-11 6.26068e-09 2.42951e-09
-2.09427e-09 -9.77359e-09 -3.8906e-09
7.2894e-11 1.33236e-08 6.88345e-09
-1.26891e-09 -2.10439e-08 -1.01163e-08
3.03481e-09 3.2472e-08 1.52769e-08
-3.27665e-09 -4.89416e-08 -2.39813e-08
6.69265e-09 7.5839e-08 3.61024e-08
-1.06327e-08 -1.15211e-07 -5.5118e-08
1.56135e-08 1.74361e-07 8.4207e-08
-2.50237e-08 -2.64574e-07 -1.27362e-07
3.77932e-08 3.97774e-07 1.93694e-07
-5.74571e-08 -5.98284e-07 -2.92562e-07
9.12864e-08 8.99525e-07 4.39323e-07
-1.38742e-07 -1.34474e-06 -6.59881e-07
2.13138e-07 2.00681e-06 9.87461e-07
-3.25415e-07 -2.98568e-06 -1.47406e-06
4.9345e-07 4.42897e-06 2.19453e-06
-7.49139e-07 -6.55388e-06 -3.25653e-06
1.13348e-06 9.67166e-06 4.81849e-06
-1.70687e-06 -1.42311e-05 -7.11041e-06
2.56494e-06 2.08808e-05 1.04624e-05
-3.84034e-06 -3.05533e-05 -1.53506e-05
5.73057e-06 4.45801e-05 2.24585e-05
-8.52648e-06 -6.48634e-05 -3.27637e-05
1.26418e-05 9.41084e-05 4.76614e-05
-1.86861e-05 -0.000136154 -6.91348e-05
2.75327e-05 0.000196427 9.99942e-05
-4.04376e-05 -0.000282579 -0.000144213
5.92041e-05 0.000405366 0.000207385
-8.64066e-05 -0.000579855 -0.000297369
0.000125709 0.000827096 0.000425164
-0.000182315 -0.0011764 -0.000606116
0.00026358 0.00166845 0.000861572
-0.000379872 -0.00235957 -0.00122113
0.000545767 0.00332744 0.00172568
-0.000781655 -0.0046789 -0.00243158
0.00111602 0.00656045 0.00341617
-0.00158844 -0.00917227 -0.00478535
0.00225382 0.0127872 0.00668349
-0.00318799 -0.0177756 -0.00930699
0.00449542 0.0246392 0.0129218
-0.00631934 -0.0340547 -0.0178874
0.00885598 0.0469333 0.0246872
-0.0123723 -0.0644959 -0.0339703
0.017232 0.0883768 0.0466031
-0.0239259 -0.12075 -0.0637425
0.0331197 0.164512 0.0869194
-0.0457031 -0.223486 -0.118168
0.0628793 0.30274 0.160154
-0.0862389 -0.408909 -0.216407
0.117931 0.550767 0.291496
-0.160756 -0.739667 -0.391468
0.218515 0.990643 0.524019
-0.296056 -1.32285 -0.699393
0.400048 1.76181 0.930293
-0.538722 -2.33931 -1.23392
0.723735 3.09852 1.6307
-0.968718 -4.09109 -2.14942
1.29411 5.39007 2.82172
-1.72165 -7.07705 -3.69606
2.28771 9.27714 4.81846
-3.02488 -12.1132 -6.27247
3.99994 15.8059 8.11668
-5.25558 -20.5239 -10.5025
6.92146 26.677 13.4788
-9.03393 -34.4473 -17.3431
11.8651 44.6594 22.0432
-15.3735 -57.3424 -28.2254
20.1871 74.3284 35.4296
-25.9397 -94.9059 -45.2036
34.2309 123.568 55.7164
-43.5862 -156.985 -70.9612
58.4145 206.966 84.8522
-73.6062 -261.467 -108.241
101.618 351.811 122.554
-124.628 -435.738 -158.521
176.418 592.234 162.781
-193.18 -674.12 -224.799
268.621 881.245 197.876
-211.539 -774.463 -343.959
1.41012e-10 3.55034e-10 -2.68026e-10
1.25445e-10 1.81852e-10 -1.83971e-10
-1.21829e-09 -1.55268e-09 9.00186e-10
-5.56763e-10 2.10156e-10 -4.30929e-10
-1.22548e-09 -6.3121e-10 4.91416e-10
7.94696e-10 8.50555e-10 -7.71495e-10
3.01446e-10 -8.3034e-11 1.80285e-10
1.07869e-09 5.77086e-10 -5.11409e-10
-5.04869e-10 -7.94209e-10 7.07291e-10
-3.39534e-11 2.80117e-10 -2.67832e-10
-6.01258e-10 -1.64163e-10 9.04267e-11
-1.16353e-09 -5.71246e-10 2.63559e-10
4.81798e-10 8.4403e-10 -3.39772e-10
9.81141e-10 4.29457e-11 -4.60446e-10
-9.72751e-11 2.97812e-10 1.00992e-09
1.91839e-10 -1.25248e-09 -8.70153e-10
-6.08801e-10 1.74331e-09 1.32576e-09
-1.29801e-09 -3.60382e-09 -1.37648e-09
4.24215e-10 5.86833e-09 1.86811e-09
-7.42299e-10 -8.71899e-09 -3.10578e-09
2.09581e-09 1.28954e-08 5.07255e-09
1.96651e-11 -1.85825e-08 -8.57936e-09
3.0576e-09 2.89643e-08 1.28128e-08
-4.23016e-09 -4.39446e-08 -1.94511e-08
5.44715e-09 6.65646e-08 3.01455e-08
-9.50635e-09 -1.02209e-07 -4.55422e-08
1.5564e-08 1.55839e-07 6.92835e-08
-2.18636e-08 -2.34749e-07 -1.06069e-07
3.57648e-08 3.55325e-07 1.60107e-07
-5.50523e-08 -5.34484e-07 -2.42242e-07
8.23946e-08 8.01394e-07 3.65406e-07
-1.3068e-07 -1.20265e-06 -5.47336e-07
1.97709e-07 1.79544e-06 8.20345e-07
-3.01037e-07 -2.67377e-06 -1.22544e-06
4.59551e-07 3.97265e-06 1.82427e-06
-6.94501e-07 -5.88307e-06 -2.71058e-06
1.05039e-06 8.69156e-06 4.01371e-06
-1.5838e-06 -1.28051e-05 -5.92641e-06
2.37752e-06 1.88108e-05 8.72729e-06
-3.55881e-06 -2.75578e-05 -1.28137e-05
5.31213e-06 4.02585e-05 1.8762e-05
-7.89988e-06 -5.8648e-05 -2.73928e-05
1.17166e-05 8.52006e-05 3.98786e-05
-1.73193e-05 -0.000123424 -5.78916e-05
2.55209e-05 0.000178295 8.37992e-05
-3.74913e-05 -0.000256837 -0.000120952
5.49023e-05 0.000368931 0.000174076
-8.01469e-05 -0.000528452 -0.000249809
0.000116639 0.000754808 0.000357455
-0.000169214 -0.00107507 -0.000510004
0.000244729 0.00152686 0.000725541
-0.000352843 -0.00216236 -0.00102916
0.000507142 0.00305366 0.00145557
-0.000726661 -0.00430003 -0.00205262
0.00103798 0.00603786 0.00288606
-0.00147808 -0.00845377 -0.00404594
0.0020983 0.0118025 0.00565517
-0.00296957 -0.0164305 -0.00788099
0.00418965 0.0228077 0.0109501
-0.00589278 -0.031569 -0.015169
0.00826275 0.0435704 0.0209501
-0.0115501 -0.0599611 -0.0288472
0.0160959 0.0822804 0.0396005
-0.0223614 -0.112582 -0.0541971
0.0309709 0.153599 0.073946
-0.0427628 -0.208954 -0.100582
0.0588646 0.283442 0.136386
-0.0807784 -0.383369 -0.184362
0.110516 0.51704 0.248426
-0.15073 -0.695294 -0.333703
0.204964 0.932344 0.446802
-0.277838 -1.24657 -0.596345
0.375521 1.66202 0.793286
-0.505934 -2.20945 -1.05191
0.679708 2.92912 1.39001
-0.91019 -3.87169 -1.83093
1.21557 5.1041 2.40283
-1.61787 -6.70842 -3.14344
2.14812 8.79546 4.09582
-2.84171 -11.4953 -5.32059
3.75185 14.9922 6.87999
-4.93303 -19.4859 -8.87206
6.47825 25.2876 11.3776
-8.46548 -32.6888 -14.5595
11.0635 42.2341 18.4961
-14.3669 -54.3037 -23.4752
18.7015 69.9134 29.4841
-24.1291 -89.4176 -37.0856
31.3323 114.873 45.8807
-40.1435 -146.069 -57.1271
52.1035 187.491 69.1498
-66.0896 -236.221 -85.1775
85.6778 302.36 99.7372
-106.116 -372.39 -122.101
135.695 469.441 136.001
-157.397 -544.641 -169.569
193.406 659.639 175.298
-194.61 -673.185 -237.708
240.423 801.535 211.696
-199.141 -693.244 -337.93
5.58062e-10 2.92204e-10 -2.34757e-10
9.54874e-10 6.64896e-10 -5.54592e-11
4.41946e-10 -4.11896e-10 2.721e-10
9.63847e-10 9.54837e-10 -6.73218e-10
-7.52259e-10 -1.03704e-09 1.10383e-09
3.37873e-10 3.74814e-10 -2.70755e-10
-3.18648e-10 -1.0475e-10 2.13039e-10
-1.60042e-10 -1.44796e-10 1.90297e-10
6.51392e-11 1.71001e-10 -1.92151e-10
-5.96575e-10 -4.40585e-10 2.97974e-10
8.0437e-10 8.49875e-10 -2.89809e-10
4.98305e-10 -1.94748e-10 -3.16848e-10
-1.31222e-10 1.72295e-10 8.60991e-10
4.14981e-10 -5.98473e-10 -9.96937e-10
-4.99902e-10 1.74537e-09 1.09282e-09
-6.37164e-10 -3.67885e-09 -1.03548e-09
9.19774e-10 5.48705e-09 1.45888e-09
-5.72921e-10 -7.60522e-09 -2.59894e-09
1.56184e-09 1.12982e-08 4.0134e-09
-1.73582e-09 -1.68139e-08 -6.55236e-09
1.45071e-09 2.44906e-08 1.05469e-08
-4.15128e-09 -3.78179e-08 -1.56323e-08
5.2356e-09 5.78367e-08 2.42683e-08
-7.9216e-09 -8.80796e-08 -3.73413e-08
1.32893e-08 1.34578e-07 5.65294e-08
-2.10674e-08 -2.04656e-07 -8.56257e-08
3.12715e-08 3.08604e-07 1.30162e-07
-5.00893e-08 -4.6586e-07 -1.96617e-07
7.62298e-08 6.99745e-07 2.96485e-07
-1.14824e-07 -1.04749e-06 -4.46399e-07
1.79141e-07 1.56773e-06 6.67956e-07
-2.70562e-07 -2.33647e-06 -9.98155e-07
4.11653e-07 3.47326e-06 1.48798e-06
-6.2576e-07 -5.15124e-06 -2.21047e-06
9.43607e-07 7.61674e-06 3.27558e-06
-1.42214e-06 -1.12319e-05 -4.84053e-06
2.13666e-06 1.6518e-05 7.13216e-06
-3.19549e-06 -2.4222e-05 -1.048e-05
4.7692e-06 3.54219e-05 1.5355e-05
-7.09566e-06 -5.16575e-05 -2.24328e-05
1.05198e-05 7.5124e-05 3.26808e-05
-1.55555e-05 -0.000108947 -4.74743e-05
2.29236e-05 0.000157554 6.87674e-05
-3.36783e-05 -0.000227208 -9.9326e-05
4.93299e-05 0.000326737 0.000143051
-7.20264e-05 -0.000468541 -0.000205431
0.000104843 0.000669994 0.000294161
-0.000152146 -0.00095536 -0.000419991
0.000220103 0.00135841 0.000597904
-0.000317439 -0.00192603 -0.000848697
0.000456408 0.00272308 0.00120116
-0.000654194 -0.003839 -0.001695
0.00093481 0.00539681 0.00238482
-0.00133168 -0.00756506 -0.00334544
0.00189121 0.0105741 0.00467903
-0.00267757 -0.0147376 -0.00652469
0.00377922 0.0204813 0.00907105
-0.00531771 -0.0283817 -0.0125731
0.00745949 0.0392162 0.0173744
-0.0104316 -0.0540299 -0.0239359
0.014543 0.074224 0.0328741
-0.0202123 -0.10167 -0.0450107
0.028005 0.13886 0.0614362
-0.0386822 -0.189102 -0.0835934
0.0532654 0.256772 0.113382
-0.0731189 -0.347637 -0.153297
0.100063 0.469284 0.206594
-0.13651 -0.631638 -0.277522
0.185658 0.847676 0.371569
-0.25171 -1.13425 -0.495844
0.340214 1.51326 0.659433
-0.458382 -2.01293 -0.87403
0.615711 2.6698 1.15436
-0.824382 -3.53039 -1.51933
1.10045 4.65491 1.99223
-1.46413 -6.11896 -2.60302
1.94228 8.02061 3.38749
-2.56775 -10.4805 -4.39222
3.38507 13.6571 5.66987
-4.44626 -17.7386 -7.29174
5.82495 22.9799 9.33013
-7.60024 -29.6653 -11.8933
9.89465 38.2066 15.0674
-12.8203 -49.0089 -19.019
16.5853 62.7473 23.8146
-21.3252 -79.9293 -29.7269
27.4058 101.692 36.6878
-34.9131 -128.429 -45.2117
44.5149 162.113 54.7658
-55.9433 -202.09 -66.5437
70.4487 251.883 78.6607
-86.3736 -306.612 -94.4174
106.216 373.266 108.204
-124.153 -434.271 -129.766
146.741 508.79 142.961
-158.67 -549.564 -175.954
182.591 625.371 181.44
-182.338 -622.279 -238.191
225.498 757.233 210.182
-205.483 -687.333 -328.881
-3.50146e-10 -7.36888e-10 1.54111e-10
-2.51741e-10 2.71681e-10 5.31014e-10
3.54653e-10 -1.03591e-10 -2.59686e-10
1.45501e-09 1.81751e-09 -9.71036e-10
-6.15249e-10 -2.32825e-10 4.42583e-11
-1.4432e-09 -1.30814e-09 8.74903e-10
3.89898e-10 -4.0483e-10 -4.85508e-11
2.95079e-10 -2.15205e-10 3.98421e-10
1.78993e-09 1.42113e-09 -6.87917e-10
3.56377e-10 -1.72306e-10 -6.16533e-10
-1.269e-09 6.03104e-10 5.66492e-10
-9.92301e-10 -1.3659e-09 -4.4682e-10
-1.37343e-09 -5.08348e-12 1.63438e-09
8.36615e-10 -2.27372e-09 -1.15559e-09
2.178e-09 4.94446e-09 6.52312e-10
-4.64127e-10 -5.68022e-09 -2.32355e-09
5.38144e-10 9.56311e-09 2.90179e-09
-2.87571e-09 -1.49104e-08 -4.72609e-09
1.07936e-09 2.05224e-08 8.46878e-09
-2.80876e-09 -3.21765e-08 -1.22573e-08
5.74017e-09 4.93454e-08 1.91604e-08
-6.47471e-09 -7.40356e-08 -3.01916e-08
1.09177e-08 1.13926e-07 4.49014e-08
-1.90216e-08 -1.73917e-07 -6.84242e-08
2.74025e-08 2.62557e-07 1.03906e-07
-4.33474e-08 -3.97117e-07 -1.56508e-07
6.78203e-08 5.96736e-07 2.3637e-07
-1.00631e-07 -8.93358e-07 -3.56282e-07
1.54806e-07 1.33714e-06 5.33759e-07
-2.38298e-07 -1.99518e-06 -7.97935e-07
3.58888e-07 2.96864e-06 1.19013e-06
-5.46791e-07 -4.4065e-06 -1.76868e-06
8.25481e-07 6.52044e-06 2.62278e-06
-1.24105e-06 -9.62344e-06 -3.87786e-06
1.86629e-06 1.41642e-05 5.7167e-06
-2.79079e-06 -2.07876e-05 -8.40565e-06
4.16258e-06 3.04259e-05 1.23232e-05
-6.1947e-06 -4.44108e-05 -1.80142e-05
9.18478e-06 6.46425e-05 2.62594e-05
-1.35794e-05 -9.38318e-05 -3.81683e-05
2.00175e-05 0.00013582 5.53204e-05
-2.9409e-05 -0.000196045 -7.99527e-05
4.30814e-05 0.000282187 0.000115219
-6.2916e-05 -0.000405036 -0.000165563
9.15945e-05 0.00057973 0.000237216
-0.000132946 -0.000827434 -0.000338892
0.000192373 0.00117764 0.000482736
-0.000277506 -0.00167131 -0.000685624
0.000399097 0.00236519 0.00097092
-0.000572197 -0.00333763 -0.00137088
0.000817861 0.00469643 0.00192985
-0.00116541 -0.00658951 -0.00270865
0.00165555 0.00921914 0.00379035
-0.0023446 -0.012861 -0.00528806
0.00331022 0.0178899 0.00735524
-0.00465912 -0.024813 -0.0101994
0.00653747 0.0343155 0.0140998
-0.00914473 -0.047319 -0.0194318
0.0127522 0.0650596 0.0266967
-0.0177276 -0.0891893 -0.0365629
0.0245677 0.121909 0.0499167
-0.0339407 -0.166142 -0.0679304
0.0467435 0.225753 0.0921466
-0.0641737 -0.305841 -0.124588
0.0878269 0.413108 0.167896
-0.119818 -0.556323 -0.225503
0.162947 0.746937 0.301848
-0.220892 -0.999826 -0.402655
0.298489 1.33428 0.535243
-0.402041 -1.77515 -0.708969
0.539779 2.35447 0.93565
-0.722319 -3.11312 -1.23026
0.963452 4.10346 1.6114
-1.28074 -5.39163 -2.10248
1.69693 7.06189 2.73194
-2.24046 -9.21921 -3.5354
2.94823 11.997 4.55468
-3.86519 -15.5579 -5.84238
5.05014 20.1095 7.45669
-6.57164 -25.8961 -9.47279
8.52186 33.234 11.9645
-10.9997 -42.4721 -15.0363
14.1471 54.0812 18.7651
-18.092 -68.5115 -23.2966
23.0483 86.4407 28.6672
-29.1379 -108.31 -35.1002
36.6745 135.045 42.4747
-45.6287 -166.627 -51.2294
56.4548 204.269 60.7886
-68.5363 -246.175 -72.2898
82.6483 294.267 83.9127
-96.5891 -342.03 -98.9793
112.563 395.348 112.079
-125.022 -437.726 -132.863
142.112 492.778 145.098
-150.817 -521.357 -176.425
176.183 600.374 179.101
-180.641 -614.105 -234.276
229.326 769.428 206.161
-214.309 -716.377 -327.07
-1.18777e-10 -6.81135e-10 -6.48606e-11
-6.13872e-10 1.39824e-09 -7.35567e-10
-3.58392e-09 -1.70543e-09 5.12455e-10
-1.86097e-09 -2.09153e-09 1.83889e-09
4.30384e-09 2.67547e-09 -2.05598e-09
1.0795e-09 -8.56961e-10 5.46774e-10
9.85458e-10 1.58135e-09 -1.11856e-09
-2.7596e-09 -5.05573e-10 -4.56005e-10
-4.34174e-09 -2.12077e-09 2.37749e-09
1.40458e-09 4.74354e-10 -1.66688e-09
1.29994e-09 5.76628e-11 1.72629e-09
4.35963e-09 -2.79628e-10 -1.62885e-09
2.26102e-09 4.88489e-09 -4.77599e-10
-4.08362e-09 -6.92394e-09 1.19191e-10
-5.03307e-10 8.03149e-09 1.76264e-09
-2.4941e-09 -1.2088e-08 -3.38151e-09
3.15257e-09 1.69001e-08 6.97172e-09
1.10269e-09 -2.47263e-08 -1.10668e-08
4.90848e-09 4.0868e-08 1.5256e-08
-6.92286e-09 -6.15656e-08 -2.36894e-08
6.53249e-09 9.39729e-08 3.57094e-08
-1.74755e-08 -1.46089e-07 -5.25033e-08
2.49973e-08 2.19815e-07 8.06926e-08
-3.61686e-08 -3.31188e-07 -1.22222e-07
5.86224e-08 4.98164e-07 1.85135e-07
-8.71055e-08 -7.45987e-07 -2.79457e-07
1.29917e-07 1.11617e-06 4.19459e-07
-2.03182e-07 -1.66777e-06 -6.26314e-07
3.07224e-07 2.48395e-06 9.33492e-07
-4.64802e-07 -3.68897e-06 -1.38861e-06
7.0518e-07 5.46286e-06 2.0605e-06
-1.05765e-06 -8.06638e-06 -3.04941e-06
1.58669e-06 1.18795e-05 4.49895e-06
-2.37738e-06 -1.74484e-05 -6.61815e-06
3.54127e-06 2.55558e-05 9.70786e-06
-5.27043e-06 -3.73306e-05 -1.41979e-05
7.81796e-06 5.43797e-05 2.0706e-05
-1.15563e-05 -7.89946e-05 -3.01119e-05
1.70374e-05 0.000114432 4.36665e-05
-2.50351e-05 -0.000165302 -6.31426e-05
3.66718e-05 0.000238118 9.10435e-05
-5.35638e-05 -0.000342049 -0.000130893
7.79891e-05 0.000489961 0.000187639
-0.00011321 -0.000699858 -0.000268202
0.000163845 0.000996852 0.000382232
-0.000236396 -0.00141585 -0.000543144
0.000340031 0.00200524 0.000769521
-0.00048761 -0.00283189 -0.00108702
0.000697089 0.00398787 0.00153093
-0.000993512 -0.00559959 -0.00214966
0.00141163 0.00784005 0.00300934
-0.00199955 -0.0109452 -0.00420003
0.00282359 0.0152359 0.00584391
-0.0039749 -0.0211467 -0.00810615
0.00557831 0.0292649 0.0112092
-0.0078042 -0.0403807 -0.0154517
0.0108842 0.0555543 0.0212326
-0.0151323 -0.0762031 -0.0290832
0.0209725 0.104215 0.0397084
-0.0289748 -0.142098 -0.0540387
0.0399038 0.193168 0.0732985
-0.0547801 -0.261797 -0.0990909
0.0749615 0.353727 0.133506
-0.102247 -0.47647 -0.179256
0.139013 0.63982 0.239842
-0.188379 -0.856489 -0.319768
0.254434 1.14292 0.424782
-0.342504 -1.52029 -0.562201
0.459508 2.01575 0.741253
-0.614369 -2.66395 -0.97355
0.818584 3.50896 1.27353
-1.08681 -4.6064 -1.65913
1.43778 6.02639 2.15225
-1.89501 -7.85628 -2.77977
2.48834 10.2052 3.57363
-3.25448 -13.2065 -4.57265
4.23968 17.0255 5.82113
-5.49915 -21.8589 -7.37267
7.10223 27.9481 9.28424
-9.12736 -35.5673 -11.6264
11.6739 45.0519 14.4635
-14.8427 -56.7485 -17.8849
18.7669 71.0874 21.9449
-23.549 -88.4167 -26.7596
29.35 109.219 32.3303
-36.2008 -133.609 -38.8437
44.2732 162.023 46.1473
-53.343 -193.79 -54.6652
63.633 229.358 63.8281
-74.3199 -266.28 -74.8104
86.1193 306.281 85.8269
-97.0778 -343.698 -100.225
110.132 386.682 112.522
-120.786 -422.424 -132.287
138.28 477.977 143.234
-149.404 -515.117 -173.376
178.382 606.382 175.832
-185.122 -630.504 -232.001
236.512 792.251 205.103
-220.494 -741.72 -327.899
-8.6506e-11 -3.8746e-10 1.60019e-10
3.1238e-09 -1.35993e-09 1.73893e-09
1.03007e-08 7.5569e-09 -5.1393e-09
-4.31399e-09 -3.18221e-09 1.78242e-09
-5.20037e-09 -1.2842e-09 1.21126e-09
-3.60831e-09 -6.99879e-10 -2.07527e-10
-2.08403e-09 -3.85155e-09 3.57109e-09
1.05926e-08 6.09772e-09 -4.8749e-09
1.82593e-09 6.54098e-10 1.01944e-09
-3.16547e-10 -8.90926e-10 -9.94053e-10
-4.47452e-09 3.20461e-09 -2.13971e-10
-1.17007e-08 -1.12054e-08 4.05203e-09
2.93246e-09 7.75842e-09 4.28139e-10
2.28105e-09 -9.01963e-09 -3.17021e-09
5.68036e-09 1.50104e-08 4.62121e-09
1.83927e-09 -1.74863e-08 -1.08272e-08
-3.30461e-09 3.00018e-08 1.40694e-08
-9.43092e-09 -5.23458e-08 -1.71303e-08
6.8183e-09 7.65902e-08 2.77204e-08
-9.71518e-09 -1.18734e-07 -4.02935e-08
2.87075e-08 1.83889e-07 5.91321e-08
-2.95058e-08 -2.7015e-07 -9.45693e-08
4.69716e-08 4.0744e-07 1.42408e-07
-7.54396e-08 -6.10675e-07 -2.15635e-07
1.04531e-07 9.10819e-07 3.25513e-07
-1.66863e-07 -1.36492e-06 -4.83973e-07
2.5718e-07 2.03576e-06 7.20634e-07
-3.86426e-07 -3.02517e-06 -1.07196e-06
5.87173e-07 4.48306e-06 1.59104e-06
-8.80894e-07 -6.62356e-06 -2.35552e-06
1.31875e-06 9.75986e-06 3.47735e-06
-1.97604e-06 -1.43433e-05 -5.11817e-06
2.94561e-06 2.10216e-05 7.51112e-06
-4.37988e-06 -3.07251e-05 -1.09907e-05
6.50036e-06 4.47864e-05 1.60361e-05
-9.60815e-06 -6.51013e-05 -2.33307e-05
1.4164e-05 9.43676e-05 3.38474e-05
-2.08166e-05 -0.000136408 -4.89657e-05
3.0492e-05 0.000196623 7.06341e-05
-4.4538e-05 -0.000282627 -0.000101596
6.48569e-05 0.000405109 0.000145704
-9.41525e-05 -0.000579032 -0.000208352
0.000136278 0.000825286 0.000297061
-0.000196646 -0.00117293 -0.000422287
0.000282887 0.00166226 0.000598523
-0.000405711 -0.00234898 -0.00084578
0.000580079 0.00330988 0.00119159
-0.000826839 -0.00465041 -0.00167372
0.00117495 0.00651493 0.00234377
-0.00166447 -0.00910044 -0.00327199
0.00235063 0.0126749 0.00455372
-0.00330935 -0.0176014 -0.00631777
0.00464457 0.0243707 0.00873762
-0.00649809 -0.033643 -0.012046
0.00906271 0.0463045 0.0165537
-0.0125995 -0.0635396 -0.0226744
0.017461 0.0869259 0.0309564
-0.0241208 -0.118557 -0.0421231
0.0332133 0.161202 0.0571247
-0.0455851 -0.218508 -0.0772042
0.0623605 0.295259 0.103979
-0.0850276 -0.397709 -0.139546
0.115547 0.533999 0.186606
-0.156492 -0.714679 -0.24862
0.211221 0.953363 0.330004
-0.284103 -1.26754 -0.43635
0.380789 1.67957 0.5747
-0.508547 -2.21788 -0.753867
0.676691 2.91847 0.984783
-0.897055 -3.82657 -1.28094
1.18463 4.99881 1.65876
-1.55819 -6.50535 -2.13823
2.04122 8.43286 2.74309
-2.66258 -10.8868 -3.50174
3.45782 13.9955 4.44688
-4.46948 -17.9108 -5.61693
5.74906 22.814 7.05406
-7.35555 -28.9114 -8.80737
9.35905 36.4421 10.9263
-11.8336 -45.6591 -13.47
14.8657 56.846 16.4879
-18.5312 -70.2549 -20.0503
22.9214 86.1634 24.1906
-28.0755 -104.697 -29.0036
34.0678 126.039 34.4741
-40.8246 -149.953 -40.779
48.4092 176.52 47.7708
-56.5262 -204.842 -55.8842
65.411 235.429 64.5761
-74.4198 -266.434 -75.021
84.6261 300.778 85.4465
-94.6078 -334.579 -99.1533
107.736 377.526 110.731
-119.646 -417.458 -129.809
139.033 479.743 140.501
-151.926 -523.549 -170.924
181.995 618.752 174.244
-189.325 -645.276 -231.105
241.335 807.941 204.997
-225.471 -759.897 -328.225
1.02062e-10 -2.84515e-10 5.3693e-11
-7.31268e-09 -4.66121e-09 3.14067e-09
-1.14558e-09 3.54604e-09 -2.637e-09
4.07005e-09 1.49511e-09 -1.61031e-09
2.63832e-09 7.57077e-10 4.65302e-10
3.86003e-09 7.44153e-10 -1.09349e-09
-5.21181e-09 -5.15171e-09 4.5666e-09
-3.46947e-09 4.05975e-10 -1.63055e-09
-1.56169e-10 2.58384e-09 -8.10341e-11
4.89467e-10 -2.25049e-09 -1.49529e-09
8.69941e-09 1.00394e-08 -2.27797e-09
1.06535e-09 -1.06872e-08 3.0124e-10
-1.37929e-09 9.64878e-09 4.87319e-09
-4.17919e-09 -1.78936e-08 -5.77462e-09
-2.46356e-09 2.51433e-08 1.0146e-08
-2.91299e-09 -3.81638e-08 -1.59191e-08
1.12974e-08 6.34642e-08 2.01445e-08
-8.26232e-09 -9.45389e-08 -3.10822e-08
1.61845e-08 1.42144e-07 4.82999e-08
-3.05367e-08 -2.20126e-07 -6.91593e-08
3.49767e-08 3.27401e-07 1.06955e-07
-5.9535e-08 -4.90061e-07 -1.63558e-07
9.08375e-08 7.35562e-07 2.44462e-07
-1.319e-07 -1.09528e-06 -3.68504e-07
2.10257e-07 1.63552e-06 5.48287e-07
-3.15783e-07 -2.43299e-06 -8.14146e-07
4.75222e-07 3.60668e-06 1.20882e-06
-7.18223e-07 -5.33346e-06 -1.78943e-06
1.07202e-06 7.86085e-06 2.64367e-06
-1.60561e-06 -1.15596e-05 -3.89203e-06
2.39842e-06 1.69538e-05 5.71178e-06
-3.56359e-06 -2.47918e-05 -8.3617e-06
5.28786e-06 3.61575e-05 1.22045e-05
-7.81892e-06 -5.2587e-05 -1.77631e-05
1.15211e-05 7.62659e-05 2.5782e-05
-1.69336e-05 -0.000110302 -3.73119e-05
2.48067e-05 0.00015908 5.38433e-05
-3.62307e-05 -0.000228785 -7.74741e-05
5.2765e-05 0.000328113 0.000111149
-7.66055e-05 -0.000469232 -0.000158993
0.000110881 0.000669141 0.000226763
-0.00016001 -0.000951505 -0.000322458
0.000230196 0.00134915 0.000457171
-0.00033016 -0.00190747 -0.000646213
0.000472082 0.00268907 0.000910664
-0.000672929 -0.00377992 -0.00127942
0.000956275 0.00529781 0.00179198
-0.00135472 -0.00740345 -0.0025021
0.00191319 0.0103155 0.00348269
-0.00269346 -0.0143303 -0.00483228
0.00378003 0.0198481 0.00668348
-0.00528815 -0.027408 -0.00921404
0.00737446 0.0377325 0.0126613
-0.0102509 -0.0517878 -0.0173409
0.0142034 0.0708596 0.0236706
-0.0196159 -0.0966536 -0.0322011
0.027002 0.131423 0.043655
-0.0370461 -0.178134 -0.0589759
0.0506562 0.240672 0.0793903
-0.0690317 -0.324109 -0.106484
0.09375 0.435034 0.142295
-0.126876 -0.58197 -0.189432
0.171099 0.775888 0.25121
-0.229904 -1.03084 -0.331818
0.307787 1.36474 0.436514
-0.410507 -1.80027 -0.571851
0.545403 2.366 0.745931
-0.721765 -3.0977 -0.968702
0.951271 4.03981 1.25225
-1.24847 -5.2471 -1.61114
1.63139 6.78658 2.06272
-2.12203 -8.73922 -2.62746
2.74711 11.2021 3.32907
-3.53842 -14.2896 -4.19494
4.53362 18.1352 5.25561
-5.77575 -22.89 -6.54568
7.31415 28.7241 8.10163
-9.20155 -35.8178 -9.96465
11.4959 44.3632 12.1741
-14.2511 -54.539 -14.7774
17.5238 66.5212 17.8111
-21.3494 -80.4193 -21.3332
25.7686 96.3377 25.3678
-30.7665 -114.219 -30.0044
36.3696 134.093 35.2293
-42.4845 -155.664 -41.2257
49.2058 179.132 47.8579
-56.3505 -203.983 -55.5679
64.3468 231.383 63.8222
-72.8075 -260.359 -73.7965
83.0116 294.567 83.7538
-93.6111 -330.425 -97.0417
107.746 376.943 108.396
-120.718 -420.76 -127.503
140.791 485.699 138.579
-154.157 -531.128 -169.369
184.44 627.057 173.177
-192.445 -655.549 -230.122
244.834 819.721 204.756
-230.538 -776.43 -327.896
-1.07141e-09 -6.99259e-10 7.61336e-10
1.75449e-09 1.52247e-09 -1.63256e-09
-4.99769e-10 -4.85232e-11 1.14122e-09
-1.63297e-09 -2.59455e-09 6.38544e-10
3.45793e-10 1.62554e-09 -2.1313e-10
-1.68194e-09 -3.16771e-09 3.14079e-10
9.8242e-10 2.67644e-09 -1.07217e-09
1.17338e-10 -2.37137e-09 -9.91483e-10
4.96302e-10 4.29855e-09 1.42939e-09
1.98883e-10 -5.83632e-09 -2.42185e-09
1.91061e-11 8.53699e-09 4.09376e-09
-8.35058e-10 -1.32877e-08 -5.28701e-09
2.63619e-09 2.20831e-08 6.89873e-09
-2.76814e-09 -3.29106e-08 -1.06064e-08
8.05698e-09 5.29893e-08 1.4347e-08
-9.57228e-09 -7.65249e-08 -2.17199e-08
1.08781e-08 1.10425e-07 3.64884e-08
-1.9438e-08 -1.69955e-07 -5.37631e-08
3.06126e-08 2.56563e-07 8.08346e-08
-4.58788e-08 -3.85995e-07 -1.22735e-07
7.35837e-08 5.80968e-07 1.82249e-07
-1.09089e-07 -8.66609e-07 -2.73688e-07
1.65786e-07 1.29224e-06 4.0893e-07
-2.52943e-07 -1.92325e-06 -6.07531e-07
3.79148e-07 2.84978e-06 9.03063e-07
-5.69788e-07 -4.21386e-06 -1.33843e-06
8.57343e-07 6.21775e-06 1.9753e-06
-1.27994e-06 -9.14487e-06 -2.91026e-06
1.91023e-06 1.3416e-05 4.27363e-06
-2.84308e-06 -1.96311e-05 -6.25583e-06
4.21469e-06 2.86424e-05 9.13469e-06
-6.23159e-06 -4.16748e-05 -1.32997e-05
9.18514e-06 6.04701e-05 1.93082e-05
-1.34956e-05 -8.74939e-05 -2.79531e-05
1.97723e-05 0.000126242 4.03507e-05
-2.88778e-05 -0.000181639 -5.80768e-05
4.20541e-05 0.00026061 8.3345e-05
-6.1057e-05 -0.000372857 -0.000119253
8.83768e-05 0.000531933 0.000170127
-0.000127531 -0.000756707 -0.000241981
0.000183473 0.00107337 0.000343146
-0.000263144 -0.00151815 -0.000485135
0.000376251 0.002141 0.000683784
-0.000536318 -0.00301056 -0.000960807
0.000762103 0.00422085 0.00134587
-0.00107958 -0.00590019 -0.00187934
0.00152451 0.00822311 0.00261596
-0.00214602 -0.0114262 -0.00362965
0.00301133 0.0158289 0.00501985
-0.00421204 -0.0218611 -0.00691977
0.00587253 0.0300993 0.00950714
-0.00816103 -0.0413133 -0.013018
0.0113042 0.0565272 0.0177647
-0.015606 -0.0770983 -0.0241582
0.0214729 0.104818 0.032737
-0.0294452 -0.14204 -0.0442035
0.0402388 0.191847 0.0594686
-0.0547976 -0.25825 -0.0797081
0.0743601 0.346456 0.10643
-0.100544 -0.463179 -0.14156
0.135448 0.617044 0.187539
-0.181788 -0.819059 -0.24744
0.24305 1.08321 0.325113
-0.323681 -1.42713 -0.425337
0.429327 1.87295 0.554002
-0.56709 -2.44821 -0.71831
0.745851 3.18694 0.926984
-0.976604 -4.1308 -1.19049
1.27285 5.33038 1.52126
-1.65096 -6.84634 -1.93388
2.13061 8.7507 2.44525
-2.73501 -11.1275 -3.0748
3.49128 14.0737 3.8443
-4.4302 -17.6981 -4.77821
5.5864 22.1211 5.90293
-6.99693 -27.4701 -7.24769
8.70131 33.878 8.84239
-10.7377 -41.4716 -10.7208
13.1442 50.372 12.9145
-15.9499 -60.6706 -15.4638
19.1833 72.4471 18.3998
-22.8527 -85.7203 -21.7775
26.9794 100.534 25.6216
-31.548 -116.834 -30.0251
36.6136 134.754 34.9811
-42.1513 -154.24 -40.6788
48.3606 175.851 46.9915
-55.1853 -199.513 -54.3687
63.1528 226.746 62.2998
-71.908 -256.708 -71.9865
82.6325 292.755 81.7548
-93.8129 -330.731 -94.9796
108.382 378.899 106.444
-121.643 -423.776 -125.712
141.894 489.316 136.999
-155.64 -535.91 -167.853
186.337 633.291 171.925
-195.257 -664.712 -228.953
248.317 831.456 204.296
-235.867 -793.78 -327.456
9.01966e-10 7.73203e-10 -3.8891e-10
9.63464e-10 -9.9598e-10 -2.79291e-10
2.57626e-09 3.28367e-09 -9.53079e-10
-4.03837e-10 -1.83436e-09 -1.45515e-10
-4.31043e-10 1.42978e-09 6.04491e-10
-6.86138e-10 -2.33919e-09 -3.29054e-10
-1.15901e-10 2.29528e-09 1.92362e-09
1.13433e-10 -4.26049e-09 -1.60259e-09
-4.17855e-10 7.42378e-09 2.98494e-09
-2.47169e-09 -1.15339e-08 -3.62754e-09
-6.31401e-10 1.65761e-08 5.94815e-09
-4.01567e-09 -2.65271e-08 -7.48824e-09
3.95306e-09 3.91229e-08 1.13667e-08
-7.33905e-09 -5.97517e-08 -1.68622e-08
1.14298e-08 8.90456e-08 2.56351e-08
-1.37424e-08 -1.30316e-07 -4.0897e-08
2.29577e-08 1.98435e-07 5.89517e-08
-4.0088e-08 -3.01315e-07 -8.8265e-08
5.4783e-08 4.48947e-07 1.34515e-07
-8.72025e-08 -6.7345e-07 -2.00474e-07
1.29138e-07 1.00218e-06 3.01114e-07
-1.95455e-07 -1.49012e-06 -4.48261e-07
2.96893e-07 2.21228e-06 6.64678e-07
-4.46422e-07 -3.27258e-06 -9.84751e-07
6.6819e-07 4.82828e-06 1.45467e-06
-1.00299e-06 -7.10755e-06 -2.14064e-06
1.4948e-06 1.04305e-05 3.14494e-06
-2.22162e-06 -1.52656e-05 -4.60611e-06
3.29681e-06 2.22835e-05 6.72608e-06
-4.87346e-06 -3.24339e-05 -9.796e-06
7.17981e-06 4.70762e-05 1.42266e-05
-1.05525e-05 -6.81414e-05 -2.05996e-05
1.54578e-05 9.83533e-05 2.97437e-05
-2.25753e-05 -0.000141561 -4.28204e-05
3.28734e-05 0.000203179 6.14629e-05
-4.77284e-05 -0.000290788 -8.79612e-05
6.90769e-05 0.000414981 0.000125509
-9.96791e-05 -0.00059052 -0.000178547
0.000143392 0.000837881 0.00025323
-0.000205643 -0.00118541 -0.000358054
0.000294013 0.00167217 0.000504709
-0.000419047 -0.00235186 -0.000709223
0.0005954 0.00329802 0.000993477
-0.000843305 -0.004611 -0.00138725
0.00119067 0.00642727 0.00193087
-0.00167575 -0.00893174 -0.00267881
0.00235089 0.012374 0.00370426
-0.00328737 -0.0170899 -0.0051052
0.00458187 0.0235293 0.00701226
-0.00636506 -0.0322925 -0.00959873
0.00881276 0.0441775 0.0130936
-0.0121605 -0.0602408 -0.0177978
0.0167227 0.081875 0.0241052
-0.0229167 -0.110908 -0.0325284
0.0312945 0.149726 0.0437314
-0.0425821 -0.201436 -0.0585693
0.0577302 0.270052 0.0781367
-0.0779766 -0.360747 -0.103828
0.104925 0.480141 0.137405
-0.140638 -0.636659 -0.181083
0.187759 0.840965 0.237626
-0.249646 -1.10646 -0.310456
0.330537 1.44987 0.403781
-0.435743 -1.89192 -0.522725
0.571862 2.45808 0.673478
-0.747017 -3.17933 -0.863445
0.97111 4.09306 1.10139
-1.25607 -5.24378 -1.3976
1.6161 6.68391 1.76396
-2.06787 -8.47421 -2.2141
2.6306 10.684 2.7634
-3.32606 -13.3909 -3.42909
4.1784 16.6796 4.23009
-5.21356 -20.6401 -5.18722
6.45889 25.3657 6.32267
-7.94154 -30.9475 -7.661
9.68841 37.4733 9.22743
-11.7231 -45.0188 -11.0515
14.0683 53.6532 13.1616
-16.7405 -63.4251 -15.5962
19.7614 74.3947 18.3868
-23.1442 -86.6019 -21.5904
26.9315 100.167 25.2355
-31.1489 -115.183 -29.4198
35.9083 131.98 34.1426
-41.2486 -150.728 -39.6003
47.4171 172.157 45.6794
-54.3706 -196.247 -52.8449
62.5917 224.376 60.6134
-71.6445 -255.422 -70.2014
82.6125 292.387 79.9526
-93.9618 -330.999 -93.2011
108.649 379.58 104.72
-122.12 -425.132 -123.99
142.677 491.699 135.344
-156.967 -540.136 -166.228
188.246 639.538 170.594
-198.152 -674.269 -227.753
252.048 843.919 203.803
-241.275 -811.734 -327.099
1.97599e-10 1.49926e-09 -6.30753e-11
-2.48871e-09 -3.06843e-09 1.43171e-09
3.9735e-10 1.58439e-09 1.25203e-10
1.57772e-09 -1.82793e-10 -1.20256e-09
1.05929e-09 2.15439e-09 6.92966e-10
9.63909e-10 -1.72731e-09 -2.245e-09
-7.91501e-10 4.76207e-09 2.11481e-09
-6.12379e-10 -8.70331e-09 -2.6855e-09
2.68142e-09 1.32337e-08 3.4442e-09
1.44851e-10 -1.87798e-08 -6.1244e-09
5.14731e-09 2.9694e-08 8.36763e-09
-4.41863e-09 -4.43191e-08 -1.23919e-08
7.98066e-09 6.73731e-08 1.82851e-08
-1.3476e-08 -1.01207e-07 -2.7651e-08
1.65047e-08 1.49421e-07 4.39689e-08
-2.80148e-08 -2.27879e-07 -6.45024e-08
4.68987e-08 3.45604e-07 9.51786e-08
-6.42109e-08 -5.12884e-07 -1.45261e-07
1.01018e-07 7.65879e-07 2.16797e-07
-1.50894e-07 -1.1378e-06 -3.24025e-07
2.2686e-07 1.68666e-06 4.82224e-07
-3.42748e-07 -2.49873e-06 -7.12715e-07
5.15316e-07 3.68849e-06 1.05271e-06
-7.68042e-07 -5.42818e-06 -1.55156e-06
1.14957e-06 7.97178e-06 2.27755e-06
-1.70783e-06 -1.16697e-05 -3.33745e-06
2.52914e-06 1.70361e-05 4.876e-06
-3.74298e-06 -2.48063e-05 -7.10115e-06
5.51368e-06 3.60156e-05 1.0315e-05
-8.09823e-06 -5.21438e-05 -1.49401e-05
1.18665e-05 7.52853e-05 2.15744e-05
-1.73265e-05 -0.000108387 -3.10652e-05
2.52267e-05 0.000155603 4.45975e-05
-3.66227e-05 -0.000222753 -6.38329e-05
5.3002e-05 0.000317964 9.10902e-05
-7.64688e-05 -0.00045256 -0.000129595
0.000109995 0.000642258 0.000183814
-0.000157723 -0.000908804 -0.000259912
0.000225466 0.00128218 0.000366372
-0.0003213 -0.00180358 -0.000514814
0.000456422 0.0025294 0.000721106
-0.000646326 -0.00353661 -0.00100681
0.000912318 0.0049298 0.00140115
-0.00128364 -0.00685066 -0.00194352
0.00180022 0.00949034 0.00268685
-0.00251641 -0.0131058 -0.00370192
0.00350587 0.0180409 0.00508298
-0.004868 -0.0247545 -0.00695497
0.0067364 0.0338554 0.0094827
-0.00928983 -0.0461489 -0.0128826
0.0127664 0.0626948 0.0174373
-0.0174818 -0.0848819 -0.0235144
0.0238526 0.114521 0.0315886
-0.0324255 -0.153962 -0.0422706
0.0439145 0.206239 0.0563403
-0.0592469 -0.275247 -0.0747886
0.0796201 0.365957 0.0988657
-0.10657 -0.484679 -0.130139
0.142056 0.639368 0.170558
-0.188558 -0.839983 -0.222533
0.249193 1.0989 0.289016
-0.327847 -1.4314 -0.373596
0.429322 1.85612 0.480597
-0.559497 -2.39567 -0.615182
0.725498 3.07714 0.783452
-0.935855 -3.93261 -0.992553
1.20066 4.9996 1.25076
-1.53168 -6.32138 -1.56755
1.94241 7.94705 1.95367
-2.44806 -9.93127 -2.42122
3.06544 12.3337 2.98358
-3.81265 -15.2178 -3.65563
4.70881 18.6497 4.45353
-5.77338 -22.6958 -5.39525
7.02601 27.4217 6.5001
-8.48548 -32.8894 -7.7901
10.1708 39.1598 9.28855
-12.0996 -46.2898 -11.0239
14.2935 54.3457 13.0248
-16.774 -63.3978 -15.3307
19.5775 73.5586 17.9754
-22.7409 -84.9532 -21.0189
26.3377 97.8115 24.4938
-30.4255 -112.338 -28.5026
35.1393 128.949 33.0523
-40.5226 -147.831 -38.3477
46.8006 169.645 44.2879
-53.8909 -194.233 -51.3448
62.2292 222.805 59.0423
-71.3657 -254.17 -68.5814
82.3961 291.361 78.3007
-93.8549 -330.334 -91.4992
108.727 379.536 102.99
-122.522 -426.198 -122.227
143.476 494.148 133.667
-158.357 -544.614 -164.618
190.253 646.133 169.292
-201.135 -684.172 -226.598
255.866 856.64 203.353
-246.661 -829.746 -326.796
4.96647e-10 1.08738e-09 -1.13251e-09
-6.87756e-10 -1.72389e-09 -9.67784e-11
-1.36104e-09 1.78274e-10 7.60362e-10
-7.45431e-10 -1.29073e-09 -1.1818e-09
-6.55003e-10 3.79518e-09 1.92913e-09
3.81801e-10 -5.69067e-09 -2.69387e-09
1.2007e-09 9.8953e-09 2.89155e-09
-2.41225e-09 -1.54474e-08 -3.06522e-09
2.03427e-09 2.1547e-08 5.74653e-09
-4.51926e-09 -3.36172e-08 -8.24026e-09
6.62867e-09 5.27327e-08 1.2539e-08
-1.05661e-08 -7.7607e-08 -1.91822e-08
1.56949e-08 1.15307e-07 2.98085e-08
-2.11351e-08 -1.72095e-07 -4.57769e-08
3.25138e-08 2.57207e-07 6.90422e-08
-5.23344e-08 -3.87183e-07 -1.02759e-07
7.44618e-08 5.75085e-07 1.54624e-07
-1.15124e-07 -8.53648e-07 -2.30617e-07
1.71541e-07 1.26689e-06 3.43296e-07
-2.58545e-07 -1.87651e-06 -5.08059e-07
3.88261e-07 2.77038e-06 7.50806e-07
-5.82421e-07 -4.08045e-06 -1.10532e-06
8.66008e-07 5.98969e-06 1.62497e-06
-1.28956e-06 -8.77203e-06 -2.38125e-06
1.91022e-06 1.28113e-05 3.47903e-06
-2.82159e-06 -1.86555e-05 -5.06944e-06
4.16091e-06 2.70936e-05 7.36379e-06
-6.109e-06 -3.92342e-05 -1.06661e-05
8.94785e-06 5.6655e-05 1.54056e-05
-1.30672e-05 -8.15818e-05 -2.21835e-05
1.90202e-05 0.00011714 3.18502e-05
-2.76081e-05 -0.000167717 -4.55914e-05
3.99491e-05 0.000239439 6.50621e-05
-5.76283e-05 -0.000340837 -9.25658e-05
8.28774e-05 0.000483757 0.000131292
-0.000118817 -0.000684577 -0.000185638
0.000169811 0.000965883 0.000261657
-0.000241932 -0.00135869 -0.000367631
0.000343586 0.00190547 0.000514868
-0.000486395 -0.0026641 -0.000718728
0.000686343 0.00371327 0.001
-0.000965332 -0.00515947 -0.00138671
0.00135326 0.00714625 0.00191645
-0.00189076 -0.00986645 -0.00263946
0.00263286 0.013578 0.00362258
-0.00365372 -0.0186243 -0.00495426
0.00505286 0.0254609 0.00675109
-0.00696323 -0.0346895 -0.00916589
0.00956166 0.0471003 0.012398
-0.0130821 -0.0637275 -0.0167061
0.0178325 0.0859167 0.0224239
-0.0242164 -0.115411 -0.0299797
0.0327592 0.154453 0.0399194
-0.0441413 -0.205919 -0.0529352
0.0592388 0.273465 0.0698984
-0.0791719 -0.361719 -0.091899
0.105364 0.476496 0.12029
-0.139609 -0.625047 -0.15674
0.184155 0.816353 0.203289
-0.241788 -1.06144 -0.262411
0.315939 1.37372 0.337083
-0.410785 -1.76937 -0.430854
0.531362 2.26769 0.547917
-0.683673 -2.89141 -0.693179
0.874782 3.66703 0.872331
-1.11289 -4.62495 -1.09191
1.40736 5.7996 1.35937
-1.76875 -7.22925 -1.6831
2.2087 8.95573 2.07255
-2.73984 -11.0239 -2.53823
3.37563 13.4809 3.09183
-4.13009 -16.3754 -3.74639
5.01775 19.757 4.51636
-6.05342 -23.6761 -5.41812
7.25272 28.1847 6.46983
-8.63206 -33.3373 -7.69285
10.2108 39.1979 9.11045
-12.0112 -45.84 -10.7517
14.0636 53.3636 12.6464
-16.4035 -61.8881 -14.8359
19.0835 71.585 17.3564
-22.1569 -82.6371 -20.2708
25.7079 95.3133 23.6158
-29.7953 -109.825 -27.4983
34.5428 126.55 31.9311
-39.9746 -145.607 -37.1222
46.2939 167.579 42.9734
-53.4107 -192.272 -49.9505
61.7682 220.915 57.5743
-70.95 -252.43 -67.0325
82.0749 289.94 76.6776
-93.7124 -329.526 -89.8021
108.827 379.578 101.274
-122.973 -427.458 -120.501
144.329 496.804 132.046
-159.798 -549.277 -163.063
192.293 652.855 168.046
-204.127 -694.111 -225.487
259.664 869.301 202.942
-252.026 -847.67 -326.496
7.67588e-10 1.43855e-09 3.31903e-10
-2.44852e-10 -1.74867e-09 9.49232e-11
4.28113e-10 2.67703e-09 1.08551e-09
1.85939e-10 -3.99824e-09 -1.38559e-09
5.35016e-10 7.37779e-09 1.83098e-09
-1.20911e-09 -1.10734e-08 -3.24676e-09
2.47867e-09 1.69328e-08 3.90953e-09
-3.12412e-09 -2.51058e-08 -5.83207e-09
4.69059e-09 3.68091e-08 9.10715e-09
-7.7909e-09 -5.71169e-08 -1.37399e-08
1.23298e-08 8.80081e-08 1.96053e-08
-1.70182e-08 -1.29295e-07 -3.16517e-08
2.50458e-08 1.91785e-07 4.78383e-08
-3.73782e-08 -2.86538e-07 -7.27335e-08
5.75337e-08 4.26014e-07 1.08163e-07
-8.39858e-08 -6.31468e-07 -1.62098e-07
1.28681e-07 9.37287e-07 2.40865e-07
-1.90999e-07 -1.38602e-06 -3.57378e-07
2.88975e-07 2.04799e-06 5.27158e-07
-4.31917e-07 -3.01728e-06 -7.76992e-07
6.4409e-07 4.43128e-06 1.14157e-06
-9.56946e-07 -6.48979e-06 -1.67321e-06
1.41733e-06 9.47741e-06 2.44596e-06
-2.09307e-06 -1.38037e-05 -3.56413e-06
3.08481e-06 2.00501e-05 5.1776e-06
-4.53162e-06 -2.90402e-05 -7.49997e-06
6.63492e-06 4.19407e-05 1.08323e-05
-9.68785e-06 -6.03992e-05 -1.55992e-05
1.41004e-05 8.67336e-05 2.2396e-05
-2.046e-05 -0.00012419 -3.20589e-05
2.96004e-05 0.000177309 4.57491e-05
-4.26893e-05 -0.000252407 -6.50854e-05
6.1378e-05 0.00035825 9.23061e-05
-8.79725e-05 -0.000506965 -0.0001305
0.000125692 0.000715258 0.000183912
-0.000179018 -0.00100607 -0.000258352
0.000254153 0.00141079 0.000361739
-0.000359655 -0.00197219 -0.000504836
0.000507292 0.00274836 0.000702184
-0.000713176 -0.00381787 -0.000973374
0.000999271 0.00528654 0.00134467
-0.00139541 -0.0072964 -0.00185112
0.00194191 0.0100372 0.0025393
-0.00269307 -0.0137612 -0.00347078
0.00372162 0.0188029 0.0047266
-0.00512458 -0.0256029 -0.00641283
0.00703073 0.0347395 0.00866763
-0.0096101 -0.0469676 -0.01167
0.0130861 0.063268 0.0156503
-0.0177506 -0.0849078 -0.020904
0.0239829 0.113515 0.0278066
-0.0322726 -0.151168 -0.0368336
0.0432481 0.200506 0.0485823
-0.0577108 -0.264858 -0.0637982
0.0766747 0.348392 0.0834055
-0.101414 -0.45629 -0.108541
0.133519 0.594943 0.140593
-0.174951 -0.772171 -0.181243
0.228118 0.997452 0.232511
-0.295938 -1.28217 -0.296805
0.381914 1.63984 0.376971
-0.490207 -2.08636 -0.476341
0.625693 2.64019 0.598789
-0.794021 -3.32245 -0.74878
1.00164 4.15707 0.931422
-1.25581 -5.17067 -1.15253
1.56457 6.3925 1.41866
-1.93673 -7.8542 -1.73723
2.38176 9.58956 2.11657
-2.90981 -11.6343 -2.56609
3.53164 14.0261 3.09636
-4.25876 -16.8048 -3.7195
5.10372 20.0135 4.44918
-6.08049 -23.7001 -5.30138
7.20554 27.9206 6.29412
-8.49835 -32.7414 -7.44904
9.98382 38.2465 8.79004
-11.6917 -44.5375 -10.3471
13.6613 51.7456 12.1514
-15.9358 -60.0189 -14.2457
18.5729 69.5472 16.6684
-21.6257 -80.5138 -19.4846
25.1725 93.1676 22.7333
-29.2625 -107.686 -26.523
34.009 124.409 30.867
-39.433 -143.441 -35.9708
45.7423 165.377 41.7344
-52.8639 -190.081 -48.6186
61.2564 218.84 56.1495
-70.5227 -250.643 -65.5141
81.7786 288.613 75.0881
-93.6113 -328.882 -88.1538
108.966 379.779 99.6194
-123.456 -428.839 -118.841
145.202 499.538 130.486
-161.245 -553.966 -161.562
194.321 659.542 166.847
-207.101 -703.978 -224.408
263.437 881.885 202.55
-257.392 -865.564 -326.189
7.36091e-10 2.37697e-09 -5.34467e-10
-1.88638e-10 -3.01994e-09 -7.88043e-10
6.90016e-10 5.17703e-09 6.684e-10
-1.31205e-09 -8.38537e-09 -1.31093e-09
2.33248e-09 1.27907e-08 2.46215e-09
-2.69341e-09 -1.91842e-08 -3.72885e-09
3.86152e-09 2.83909e-08 6.26024e-09
-5.64999e-09 -4.19852e-08 -9.60323e-09
7.9712e-09 6.27009e-08 1.48446e-08
-1.21931e-08 -9.42721e-08 -2.19096e-08
1.83446e-08 1.39153e-07 3.33387e-08
-2.73264e-08 -2.07142e-07 -5.01489e-08
4.11436e-08 3.09189e-07 7.53458e-08
-6.19429e-08 -4.59738e-07 -1.12335e-07
9.36905e-08 6.82738e-07 1.66603e-07
-1.40467e-07 -1.00911e-06 -2.46969e-07
2.10868e-07 1.49069e-06 3.64869e-07
-3.16191e-07 -2.19702e-06 -5.37165e-07
4.70686e-07 3.22715e-06 7.90554e-07
-6.98391e-07 -4.72643e-06 -1.15869e-06
1.03555e-06 6.90388e-06 1.69387e-06
-1.52799e-06 -1.0055e-05 -2.4687e-06
2.2502e-06 1.46052e-05 3.58681e-06
-3.30671e-06 -2.1157e-05 -5.19459e-06
4.84116e-06 3.05565e-05 7.50212e-06
-7.06554e-06 -4.40059e-05 -1.0803e-05
1.02822e-05 6.31935e-05 1.55099e-05
-1.49157e-05 -9.0484e-05 -2.22001e-05
2.15715e-05 0.000129182 3.16779e-05
-3.11024e-05 -0.000183887 -4.50613e-05
4.47042e-05 0.00026098 6.38971e-05
-6.40532e-05 -0.000369278 -9.03189e-05
9.14854e-05 0.000520933 0.000127257
-0.000130247 -0.000732615 -0.000178718
0.000184836 0.00102712 0.000250162
-0.000261446 -0.0014355 -0.000349
0.000368586 0.00199988 0.000485244
-0.000517897 -0.0027772 -0.00067236
0.000725231 0.00384407 0.000928386
-0.00101209 -0.0053032 -0.00127737
0.00140749 0.00729163 0.00175123
-0.00195045 -0.00999145 -0.0023921
0.00269317 0.0136435 0.00325537
-0.00370513 -0.0185646 -0.00441343
0.00507839 0.0251701 0.00596042
-0.00693427 -0.0340009 -0.0080181
0.00943179 0.0457584 0.010743
-0.0127782 -0.0613467 -0.0143354
0.0172421 0.0819246 0.0190495
-0.0231694 -0.108968 -0.0252065
0.0310026 0.144346 0.0332094
-0.0413042 -0.190409 -0.0435602
0.0547839 0.25009 0.0568802
-0.0723305 -0.327026 -0.0739326
0.0950479 0.425688 0.0956484
-0.124296 -0.551526 -0.123154
0.161735 0.711127 0.157804
-0.209372 -0.912377 -0.201209
0.269608 1.16462 0.255279
-0.345286 -1.4788 -0.322252
0.439735 1.86764 0.404737
-0.556804 -2.34566 -0.505755
0.70089 2.92936 0.62878
-0.876958 -3.63714 -0.77779
1.09055 4.48938 0.957323
-1.34777 -5.50836 -1.17255
1.65531 6.71827 1.42933
-2.02046 -8.14527 -1.73439
2.4512 9.81772 2.09537
-2.95628 -11.7666 -2.52107
3.54556 14.0267 3.02159
-4.23031 -16.6372 -3.60872
5.02386 19.6448 4.296
-5.94216 -23.1047 -5.09945
7.00487 27.0848 6.03737
-8.23561 -31.6669 -7.13179
9.66375 36.951 8.40723
-11.3229 -43.053 -9.89441
13.2543 50.1115 11.6253
-15.5008 -58.2737 -13.6439
18.1169 67.7181 15.9892
-21.1506 -78.6106 -18.7267
24.6756 91.183 21.8957
-28.7398 -105.606 -25.6029
33.4595 122.23 29.8609
-38.8646 -141.189 -34.873
45.1725 163.113 40.5414
-52.3208 -187.905 -47.3276
60.7702 216.862 54.7679
-70.1318 -249 -64.0482
81.5167 287.425 73.5614
-93.5363 -328.342 -86.5727
109.123 380.049 98.0301
-123.947 -430.257 -117.241
146.073 502.274 128.981
-162.682 -558.623 -160.108
196.336 666.184 165.684
-210.064 -713.805 -223.351
267.205 894.455 202.171
-262.768 -883.483 -325.879
2.35449e-10 3.89379e-09 4.87509e-10
-2.05371e-09 -6.86363e-09 5.13055e-10
2.89968e-09 9.90806e-09 6.44561e-10
-2.33485e-09 -1.36432e-08 -2.00745e-09
3.38369e-09 2.11465e-08 3.4868e-09
-4.14655e-09 -3.05428e-08 -6.63896e-09
5.31692e-09 4.49109e-08 1.03302e-08
-8.94221e-09 -6.7587e-08 -1.51671e-08
1.27569e-08 1.00181e-07 2.30134e-08
-1.99111e-08 -1.48901e-07 -3.43062e-08
2.96239e-08 2.20952e-07 5.14519e-08
-4.44562e-08 -3.28757e-07 -7.67409e-08
6.61367e-08 4.88409e-07 1.14137e-07
-1.02291e-07 -7.24817e-07 -1.68053e-07
1.52032e-07 1.0697e-06 2.4894e-07
-2.2676e-07 -1.57557e-06 -3.67028e-07
3.39414e-07 2.31498e-06 5.39202e-07
-5.01298e-07 -3.38914e-06 -7.92042e-07
7.42527e-07 4.95142e-06 1.15634e-06
-1.09918e-06 -7.21314e-06 -1.68501e-06
1.61566e-06 1.04761e-05 2.44834e-06
-2.37344e-06 -1.51754e-05 -3.54539e-06
3.47753e-06 2.19195e-05 5.11842e-06
-5.07275e-06 -3.15663e-05 -7.37015e-06
7.37913e-06 4.5326e-05 1.05805e-05
-1.07013e-05 -6.4894e-05 -1.51428e-05
1.54697e-05 9.2637e-05 2.16048e-05
-2.22967e-05 -0.00013185 -3.0726e-05
3.20367e-05 0.000187097 4.356e-05
-4.58838e-05 -0.000264688 -6.15553e-05
6.55089e-05 0.000373309 8.67035e-05
-9.32203e-05 -0.000524868 -0.000121726
0.000132224 0.000735646 0.000170324
-0.00018693 -0.00102779 -0.00023752
0.000263383 0.00143134 0.000330092
-0.000369845 -0.00198682 -0.00045715
0.000517565 0.00274874 0.00063088
-0.000721759 -0.00379008 -0.000867513
0.00100296 0.00520808 0.00118856
-0.0013887 -0.00713177 -0.00162239
0.00191577 0.00973152 0.00220623
-0.00263307 -0.0132312 -0.00298868
0.00360521 0.0179236 0.00403285
-0.00491721 -0.0241894 -0.00542021
0.00668022 0.0325212 0.0072554
-0.0090388 -0.0435525 -0.00967195
0.0121798 0.0580934 0.0128393
-0.0163431 -0.0771735 -0.016971
0.0218349 0.102093 0.0223347
-0.0290431 -0.134481 -0.0292632
0.0384558 0.176368 0.0381683
-0.0506823 -0.230262 -0.0495548
0.066477 0.299239 0.0640385
-0.0867666 -0.387038 -0.0823642
0.112679 0.498167 0.105427
-0.145573 -0.63801 -0.134294
0.187073 0.812933 0.17023
-0.239098 -1.0304 -0.214722
0.303892 1.29904 0.269511
-0.384055 -1.62879 -0.33662
0.48256 2.0309 0.41839
-0.602783 -2.51805 -0.517521
0.748515 3.10434 0.637119
-0.923986 -3.80542 -0.780752
1.1339 4.63854 0.95252
-1.38348 -5.62274 -1.15715
1.67856 6.77915 1.40007
-2.02571 -8.13144 -1.68762
2.43247 9.70658 2.02711
-2.90759 -11.5358 -2.42709
3.46149 13.6561 2.89753
-4.10661 -16.1114 -3.45014
4.85808 18.9548 4.09853
-5.73399 -22.2497 -4.85883
6.75621 26.072 5.74953
-7.95011 -30.5099 -6.79294
9.3458 35.6665 8.01384
-10.9763 -41.6557 -9.44324
12.8811 48.61 11.1133
-15.1005 -56.6675 -13.0679
17.6866 65.9986 15.3457
-20.6873 -76.7671 -18.0114
24.1782 89.2113 21.1035
-28.2117 -103.518 -24.728
32.9099 120.059 28.898
-38.3087 -138.989 -33.8176
44.6281 160.949 39.3935
-51.8102 -185.857 -46.0881
60.3156 215.011 53.4451
-69.7663 -247.46 -62.6457
81.2736 286.312 72.0984
-93.4743 -327.857 -85.0525
109.288 380.351 96.4987
-124.439 -431.684 -115.695
146.941 505.001 127.523
-164.113 -563.264 -158.694
198.346 672.813 164.554
-213.025 -723.629 -222.317
270.977 907.039 201.808
-268.154 -901.441 -325.57
3.27481e-09 8.37747e-09 -7.16541e-10
-2.86934e-09 -1.1538e-08 -4.76347e-11
2.93262e-09 1.63493e-08 1.09408e-09
-4.34976e-09 -2.28618e-08 -3.41735e-09
3.8997e-09 3.2786e-08 5.92775e-09
-7.09208e-09 -4.81558e-08 -9.56146e-09
9.8973e-09 7.04841e-08 1.54176e-08
-1.31142e-08 -1.04747e-07 -2.32534e-08
2.15136e-08 1.56006e-07 3.46667e-08
-3.12607e-08 -2.31056e-07 -5.25123e-08
4.58714e-08 3.44295e-07 7.73763e-08
-7.12569e-08 -5.12023e-07 -1.1336e-07
1.09555e-07 7.57716e-07 1.66336e-07
-1.61556e-07 -1.1159e-06 -2.45308e-07
2.40876e-07 1.63768e-06 3.61756e-07
-3.57898e-07 -2.3967e-06 -5.32057e-07
5.23059e-07 3.49784e-06 7.79609e-07
-7.76832e-07 -5.0958e-06 -1.13498e-06
1.14312e-06 7.40151e-06 1.64824e-06
-1.67646e-06 -1.07212e-05 -2.38495e-06
2.45796e-06 1.54865e-05 3.44114e-06
-3.58894e-06 -2.23026e-05 -4.95188e-06
5.21572e-06 3.20184e-05 7.10907e-06
-7.55974e-06 -4.58306e-05 -1.0175e-05
1.0922e-05 6.541e-05 1.45147e-05
-1.57347e-05 -9.30762e-05 -2.06389e-05
2.25969e-05 0.000132044 2.92517e-05
-3.23499e-05 -0.000186755 -4.13213e-05
4.61637e-05 0.000263314 5.81803e-05
-6.56597e-05 -0.000370092 -8.16476e-05
9.30753e-05 0.000518515 0.000114194
-0.000131506 -0.000724128 -0.000159168
0.000185173 0.00100797 0.000221086
-0.00025984 -0.00139842 -0.000306013
0.000363345 0.0019336 0.000422049
-0.000506292 -0.00266446 -0.00057997
0.000702939 0.00365883 0.000794043
-0.000972402 -0.00500657 -0.00108306
0.00134015 0.00682612 0.00147165
-0.00184 -0.0092729 -0.0019919
0.00251653 0.0125497 0.00268545
-0.00342826 -0.0169199 -0.00360595
0.00465155 0.0227232 0.00482223
-0.00628547 -0.030396 -0.00642197
0.00845773 0.0404949 0.00851628
-0.0113319 -0.0537255 -0.0112451
0.0151163 0.0709766 0.0147833
-0.0200738 -0.09336 -0.0193487
0.0265347 0.122257 0.0252098
-0.0349097 -0.15937 -0.0326963
0.0457065 0.206781 0.0422098
-0.0595466 -0.267018 -0.0542364
0.0771851 0.34312 0.0693606
-0.0995305 -0.438714 -0.0882805
0.127666 0.558084 0.111825
-0.162873 -0.70625 -0.140972
0.206648 0.889036 0.176871
-0.26073 -1.11314 -0.220864
0.327115 1.38621 0.274513
-0.408082 -1.71689 -0.339635
0.506213 2.11492 0.418334
-0.624424 -2.59123 -0.513049
0.766 3.15802 0.626609
-0.934654 -3.82906 -0.7623
1.13461 4.61986 0.923947
-1.37071 -5.54814 -1.11601
1.64858 6.63442 1.34372
-1.97484 -7.90265 -1.61319
2.35737 9.38124 1.93161
-2.8056 -11.104 -2.30743
3.33088 13.1113 2.75054
-3.94672 -15.4512 -3.27263
4.66926 18.1806 3.8873
-5.5173 -21.3655 -4.61068
6.51288 25.0826 5.46124
-7.68085 -29.4183 -6.46124
9.05023 34.472 7.63533
-10.6527 -40.3526 -9.01424
12.5267 47.1889 10.6297
-14.7124 -55.1184 -12.525
17.2631 64.3154 14.7381
-20.2294 -74.953 -17.3334
23.6897 87.2807 20.3492
-27.7001 -101.498 -23.8921
32.3847 117.984 27.9771
-37.7818 -136.903 -32.8091
44.1126 158.901 38.2981
-51.3248 -183.912 -44.9054
59.8817 213.245 52.1809
-69.4179 -245.989 -61.3015
81.0441 285.256 70.6925
-93.422 -327.413 -83.5881
109.458 380.681 95.0209
-124.934 -433.127 -114.198
147.81 507.738 126.111
-165.545 -567.911 -157.319
200.357 679.445 163.457
-215.988 -733.459 -221.306
274.755 919.64 201.46
-273.551 -919.438 -325.262
1.83838e-09 1.116e-08 1.23619e-09
-3.34071e-09 -1.70373e-08 -7.47821e-10
6.17775e-09 2.51756e-08 2.20941e-09
-3.96428e-09 -3.42719e-08 -5.44216e-09
1.02496e-08 5.19972e-08 7.86556e-09
-1.06641e-08 -7.39562e-08 -1.46692e-08
1.26971e-08 1.07773e-07 2.36864e-08
-2.30122e-08 -1.61773e-07 -3.42125e-08
3.20427e-08 2.38392e-07 5.23008e-08
-4.58966e-08 -3.53751e-07 -7.69953e-08
7.71752e-08 5.29096e-07 1.09765e-07
-1.15813e-07 -7.79592e-07 -1.61125e-07
1.68925e-07 1.1422e-06 2.38825e-07
-2.51007e-07 -1.67234e-06 -3.50809e-07
3.6912e-07 2.43687e-06 5.16332e-07
-5.33735e-07 -3.54428e-06 -7.55363e-07
7.98742e-07 5.154e-06 1.0923e-06
-1.16661e-06 -7.46168e-06 -1.58234e-06
1.70907e-06 1.07782e-05 2.28084e-06
-2.50123e-06 -1.55244e-05 -3.27752e-06
3.63589e-06 2.22822e-05 4.70451e-06
-5.25988e-06 -3.18834e-05 -6.73465e-06
7.59593e-06 4.54902e-05 9.60683e-06
-1.09325e-05 -6.47084e-05 -1.36583e-05
1.56949e-05 9.17712e-05 1.93504e-05
-2.24554e-05 -0.000129748 -2.73251e-05
3.20247e-05 0.000182866 3.84569e-05
-4.55263e-05 -0.000256914 -5.39404e-05
6.44947e-05 0.000359779 7.54049e-05
-9.10563e-05 -0.000502188 -0.000105045
0.000128129 0.00069865 0.000145818
-0.000179657 -0.000968697 -0.000201705
0.00025101 0.00133854 0.000278004
-0.000349454 -0.00184317 -0.000381755
0.000484734 0.0025291 0.000522269
-0.000669883 -0.00345785 -0.000711799
0.000922255 0.0047104 0.000966375
-0.00126481 -0.00639277 -0.00130687
0.00172782 0.00864313 0.0017603
-0.00235088 -0.0116405 -0.00236146
0.00318555 0.0156153 0.00315492
-0.00429859 -0.0208631 -0.00419739
0.00577583 0.0277599 0.00556063
-0.00772699 -0.0367812 -0.00733491
0.0102913 0.048525 0.00963305
-0.0136443 -0.0637373 -0.0125952
0.0180058 0.0833431 0.0163944
-0.0236484 -0.10848 -0.0212429
0.0309085 0.140538 0.0273992
-0.0401973 -0.181199 -0.0351766
0.0520131 0.232486 0.0449523
-0.0669552 -0.29681 -0.0571778
0.085738 0.377021 0.0723904
-0.109206 -0.476458 -0.0912267
0.138349 0.599009 0.114437
-0.174319 -0.74916 -0.142905
0.218446 0.932057 0.177662
-0.272258 -1.15357 -0.219919
0.337504 1.42037 0.271086
-0.416178 -1.74003 -0.332815
0.510561 2.12116 0.407035
-0.623267 -2.57355 -0.496004
0.757313 3.10847 0.602372
-0.916208 -3.73894 -0.729253
1.10407 4.48018 0.88031
-1.32578 -5.35012 -1.05986
1.58717 6.37004 1.273
-1.89518 -7.56523 -1.52574
2.25817 8.96582 1.82514
-2.68603 -10.6074 -2.17958
3.19054 12.5321 2.59883
-3.78543 -14.7887 -3.09447
4.48675 17.4337 3.67995
-5.31288 -20.5319 -4.37122
6.28518 24.1575 5.18651
-7.42775 -28.3942 -6.14772
8.76904 33.3393 7.27909
-10.3407 -39.1017 -8.61084
12.1819 45.8124 10.1742
-14.334 -53.6138 -12.012
16.8523 62.6864 14.1621
-19.7887 -73.21 -16.6889
23.2235 85.4395 19.6316
-27.214 -99.5797 -23.0969
31.8854 116.013 27.1012
-37.2791 -134.916 -31.8495
43.6189 156.941 37.2541
-50.859 -182.045 -43.7753
59.4654 211.55 50.97
-69.085 -244.582 -60.0109
80.8275 284.255 69.3401
-93.38 -327.013 -82.1761
109.636 381.046 93.5935
-125.435 -434.597 -112.749
148.683 510.493 124.743
-166.979 -572.569 -155.982
202.369 686.084 162.391
-218.952 -743.295 -220.317
278.539 932.26 201.127
-278.961 -937.479 -324.955
6.69856e-09 2.01229e-08 -1.38521e-09
-6.78973e-09 -2.52565e-08 -2.14314e-09
4.2538e-09 3.52285e-08 5.1449e-09
-1.00468e-08 -5.24995e-08 -8.27548e-09
1.03215e-08 7.48239e-08 1.49568e-08
-1.11032e-08 -1.09166e-07 -2.38614e-08
2.49768e-08 1.65656e-07 3.326e-08
-3.26157e-08 -2.43336e-07 -5.03878e-08
4.86015e-08 3.61538e-07 7.2754e-08
-8.3803e-08 -5.38566e-07 -1.03039e-07
1.20537e-07 7.88549e-07 1.53158e-07
-1.72011e-07 -1.14807e-06 -2.29463e-07
2.52378e-07 1.67286e-06 3.37707e-07
-3.70868e-07 -2.43321e-06 -4.94044e-07
5.36197e-07 3.53022e-06 7.18279e-07
-8.07433e-07 -5.12392e-06 -1.03021e-06
1.17656e-06 7.39658e-06 1.48678e-06
-1.71296e-06 -1.06472e-05 -2.13796e-06
2.5027e-06 1.52853e-05 3.06367e-06
-3.61143e-06 -2.18567e-05 -4.39036e-06
5.19805e-06 3.11628e-05 6.26818e-06
-7.48125e-06 -4.43124e-05 -8.90848e-06
1.07311e-05 6.28195e-05 1.26159e-05
-1.53487e-05 -8.87808e-05 -1.78041e-05
2.18794e-05 0.000125072 2.50423e-05
-3.10783e-05 -0.000175627 -3.51054e-05
4.40053e-05 0.000245816 4.90427e-05
-6.20782e-05 -0.000342908 -6.82805e-05
8.72743e-05 0.00047675 9.47241e-05
-0.00012228 -0.00066058 -0.000130932
0.000170693 0.000912111 0.00018033
-0.000237399 -0.00125498 -0.000247446
0.000328971 0.00172058 0.000338251
-0.00045415 -0.00235031 -0.000460614
0.000624544 0.00319862 0.000624812
-0.000855517 -0.00433668 -0.000844201
0.00116724 0.00585702 0.00113606
-0.0015861 -0.00787933 -0.00152259
0.00214634 0.0105575 0.00203223
-0.00289218 -0.0140882 -0.0027011
0.00388041 0.0187213 0.00357487
-0.0051834 -0.0247725 -0.00471095
0.00689283 0.0326374 0.00618103
-0.00912398 -0.042809 -0.00807416
0.0120208 0.0558974 0.0105002
-0.0157619 -0.0726518 -0.0135941
0.0205668 0.0939857 0.0175202
-0.0267036 -0.121005 -0.022478
0.0344971 0.155038 0.028708
-0.0443377 -0.197667 -0.036499
0.0566909 0.250767 0.0461957
-0.0721081 -0.316538 -0.058208
0.0912371 0.397548 0.0730218
-0.114835 -0.496777 -0.0912112
0.14378 0.617664 0.113453
-0.179092 -0.764163 -0.140544
0.221943 0.940813 0.173423
-0.273692 -1.15282 -0.213193
0.335906 1.40619 0.261156
-0.410406 -1.70783 -0.318845
0.49932 2.06579 0.388073
-0.605148 -2.48948 -0.47098
0.73085 2.98997 0.570102
-0.87995 -3.58038 -0.68844
1.05666 4.27629 0.829549
-1.26601 -5.09624 -0.997641
1.51402 6.06224 1.19769
-1.80785 -7.20031 -1.4356
2.15594 8.54105 1.7183
-2.56821 -10.1201 -2.05399
3.05627 11.979 2.45229
-3.63351 -14.1652 -2.92455
4.31553 16.734 3.48395
-5.12027 -19.7482 -4.14611
6.06874 23.2809 4.92888
-7.185 -27.4156 -5.85374
8.49783 32.2509 6.94449
-10.0396 -37.898 -8.23094
11.8501 44.4912 9.74412
-13.972 -52.1762 -11.5266
16.461 61.1367 13.6165
-19.3701 -71.5554 -16.0782
22.7801 83.6902 18.9512
-26.7501 -97.7516 -22.3423
31.4073 114.129 26.2689
-36.7966 -133.01 -30.9355
43.1445 155.059 36.2573
-50.4116 -180.254 -42.6938
59.0664 209.924 49.8088
-68.7675 -243.237 -58.7707
80.6244 283.308 68.0382
-93.3495 -326.661 -80.8138
109.823 381.449 92.2142
-125.942 -436.095 -111.344
149.561 513.267 123.416
-168.416 -577.237 -154.681
204.383 692.731 161.357
-221.919 -753.142 -219.35
282.33 944.904 200.809
-284.387 -955.57 -324.647
1.55553e-09 2.58956e-08 2.19635e-09
-9.71855e-09 -3.73561e-08 -3.65105e-09
4.60966e-09 5.10472e-08 9.67473e-09
-1.39855e-08 -7.59741e-08 -1.46151e-08
6.34734e-09 1.0772e-07 2.4402e-08
-3.09184e-08 -1.7e-07 -2.91267e-08
3.26229e-08 2.45848e-07 4.64117e-08
-5.46492e-08 -3.66608e-07 -6.46497e-08
9.0328e-08 5.42675e-07 9.21953e-08
-1.24016e-07 -7.83723e-07 -1.43279e-07
1.67609e-07 1.13105e-06 2.18252e-07
-2.50184e-07 -1.64569e-06 -3.18802e-07
3.6575e-07 2.38798e-06 4.62994e-07
-5.36934e-07 -3.45944e-06 -6.66967e-07
8.02318e-07 5.0107e-06 9.49295e-07
-1.17701e-06 -7.20735e-06 -1.36861e-06
1.67545e-06 1.03257e-05 1.9703e-06
-2.46114e-06 -1.4777e-05 -2.81268e-06
3.50526e-06 2.10351e-05 4.03197e-06
-5.03199e-06 -2.98882e-05 -5.73457e-06
7.22057e-06 4.23584e-05 8.11078e-06
-1.03341e-05 -5.98405e-05 -1.14349e-05
1.47133e-05 8.42574e-05 1.60715e-05
-2.09029e-05 -0.000118256 -2.25089e-05
2.95581e-05 0.000165408 3.1426e-05
-4.16837e-05 -0.000230595 -4.3717e-05
5.85388e-05 0.000320361 6.06095e-05
-8.1937e-05 -0.000443549 -8.37145e-05
0.000114285 0.000611955 0.0001152
-0.000158785 -0.000841265 -0.000157952
0.000219773 0.00115231 0.000215745
-0.000303072 -0.00157255 -0.000293528
0.000416306 0.00213798 0.000397804
-0.000569551 -0.00289557 -0.000536999
0.00077608 0.00390634 0.000721978
-0.00105316 -0.00524901 -0.000966715
0.00142318 0.00702464 0.00128906
-0.001915 -0.00936214 -0.00171171
0.00256552 0.012425 0.00226331
-0.00342182 -0.0164193 -0.00297983
0.00454327 0.021603 0.00390622
-0.0060045 -0.028297 -0.00509829
0.00789844 0.0368978 0.00662494
-0.0103402 -0.0478917 -0.00857076
0.0134713 0.0618715 0.011039
-0.0174643 -0.079554 -0.0141553
0.0225281 0.101801 0.0180712
-0.028914 -0.12964 -0.0229694
0.0369223 0.164289 0.0290687
-0.046909 -0.207185 -0.0366306
0.0592944 0.260009 0.0459663
-0.0745717 -0.324723 -0.0574457
0.0933174 0.403606 0.0715079
-0.116204 -0.499302 -0.0886729
0.144016 0.614876 0.109558
-0.177667 -0.753879 -0.134893
0.218226 0.920448 0.165545
-0.266947 -1.11941 -0.202544
0.32531 1.35642 0.247113
-0.395069 -1.63817 -0.300705
0.478313 1.97258 0.365049
-0.577541 -2.36904 -0.442203
0.695742 2.83876 0.534614
-0.836494 -3.39506 -0.645191
1.00407 4.05377 0.777387
-1.20355 -4.83359 -0.935299
1.44094 5.75651 1.12378
-1.72331 -6.84826 -1.34856
2.05895 8.13881 1.61643
-2.45751 -9.66293 -1.93536
2.93028 11.4609 2.31472
-3.49036 -13.5793 -2.76559
4.15313 16.0724 3.30082
-4.93645 -19.0028 -3.93566
5.86144 22.444 4.68762
-6.95245 -26.4807 -5.5778
8.23863 31.2128 6.62972
-9.75274 -36.7533 -7.87294
11.535 43.2377 9.33832
-13.6284 -50.8134 -11.0683
16.0891 59.6657 13.1009
-18.971 -69.9806 -15.5004
22.3561 82.0201 18.3065
-26.3056 -96.0018 -21.6258
30.9485 112.322 25.4766
-36.3333 -131.182 -30.0635
42.689 153.253 35.3044
-49.9823 -178.535 -41.658
58.6842 208.367 48.6947
-68.4655 -241.956 -57.5783
80.4353 282.418 66.7842
-93.3309 -326.356 -79.4987
110.02 381.891 90.8808
-126.457 -437.623 -109.983
150.443 516.062 122.129
-169.856 -581.92 -153.414
206.4 699.389 160.351
-224.891 -763.005 -218.402
286.13 957.577 200.506
-289.83 -973.719 -324.338
2.12627e-08 4.3374e-08 -4.66611e-11
7.20414e-09 -4.61126e-08 -1.15397e-08
2.495e-08 8.14823e-08 9.56924e-09
-6.34468e-10 -1.10589e-07 -1.8908e-08
4.90666e-08 1.80649e-07 1.79164e-08
-3.23585e-08 -2.48864e-07 -3.69709e-08
6.81567e-08 3.71882e-07 5.09975e-08
-9.51169e-08 -5.34217e-07 -8.28655e-08
1.19629e-07 7.58434e-07 1.36233e-07
-1.53068e-07 -1.09272e-06 -2.05284e-07
2.51207e-07 1.59777e-06 2.89933e-07
-3.6062e-07 -2.31521e-06 -4.15879e-07
5.43514e-07 3.34918e-06 5.94326e-07
-7.89953e-07 -4.81909e-06 -8.53669e-07
1.15757e-06 6.89291e-06 1.24011e-06
-1.58619e-06 -9.81535e-06 -1.79623e-06
2.37215e-06 1.40021e-05 2.55458e-06
-3.30032e-06 -1.98397e-05 -3.6586e-06
4.77013e-06 2.81212e-05 5.15749e-06
-6.8347e-06 -3.97271e-05 -7.2475e-06
9.76369e-06 5.59223e-05 1.01655e-05
-1.38208e-05 -7.84296e-05 -1.42276e-05
1.95806e-05 0.000109646 1.98366e-05
-2.75418e-05 -0.000152728 -2.75811e-05
3.86869e-05 0.000212032 3.81981e-05
-5.40649e-05 -0.000293304 -5.27255e-05
7.53395e-05 0.000404314 7.24913e-05
-0.000104581 -0.000555312 -9.93021e-05
0.000144577 0.000759876 0.000135524
-0.000199108 -0.00103593 -0.000184226
0.000273202 0.00140693 0.00024943
-0.000373301 -0.00190336 -0.000336397
0.000507962 0.00256479 0.000451867
-0.000688377 -0.00344224 -0.000604476
0.000928938 0.00460101 0.000805291
-0.00124813 -0.0061243 -0.00106835
0.00166969 0.00811742 0.00141137
-0.00222358 -0.0107129 -0.00185662
0.00294791 0.0140765 0.00243184
-0.0038901 -0.018414 -0.00317158
0.00510942 0.0239795 0.00411848
-0.006679 -0.0310845 -0.00532499
0.00868883 0.0401083 0.00685517
-0.0112486 -0.0515103 -0.00878711
0.014491 0.0658425 0.0112154
-0.0185763 -0.0837649 -0.0142544
0.0236957 0.106062 0.0180416
-0.0300773 -0.13366 -0.0227419
0.0379911 0.167653 0.0285529
-0.0477557 -0.209319 -0.0357106
0.0597464 0.26016 0.044497
-0.0744042 -0.321926 -0.055248
0.0922478 0.396669 0.0683649
-0.113888 -0.48679 -0.0843261
0.140045 0.595109 0.103703
-0.171573 -0.724951 -0.127177
0.209488 0.880248 0.155564
-0.255002 -1.06567 -0.189838
0.309567 1.28678 0.231163
-0.374922 -1.55021 -0.280931
0.453157 1.86386 0.340802
-0.546773 -2.23717 -0.412759
0.658759 2.68133 0.499165
-0.792673 -3.20958 -0.602831
0.952734 3.83755 0.727101
-1.14392 -4.58355 -0.875942
1.37208 5.46903 1.05406
-1.6441 -6.51899 -1.267
1.96804 7.76261 1.52135
-2.35334 -9.23383 -1.82486
2.81112 10.9723 2.18663
-3.35438 -13.0244 -2.61743
3.9985 15.4442 3.12983
-4.76141 -18.2948 -3.73877
5.66436 21.6501 4.46145
-6.73181 -25.5952 -5.3187
7.99304 30.2307 6.33379
-9.48095 -35.6701 -7.53601
11.236 42.0497 8.95601
-13.3014 -49.5186 -10.6359
15.7343 58.2643 12.6137
-18.5894 -68.4769 -14.9533
21.9502 80.4227 17.6946
-25.8796 -94.3264 -20.9443
30.5084 110.591 24.7216
-35.8887 -129.428 -29.2311
42.2517 151.521 34.3931
-49.5706 -176.887 -40.6654
58.3187 206.877 47.625
-68.1789 -240.735 -56.4311
80.2597 281.582 65.5757
-93.3237 -326.099 -78.2285
110.226 382.371 89.5911
-126.979 -439.179 -108.664
151.331 518.878 120.88
-171.299 -586.618 -152.18
208.421 706.062 159.373
-227.868 -772.887 -217.474
289.94 970.286 200.216
-295.293 -991.934 -324.029
8.29731e-09 5.76118e-08 4.5775e-09
-2.6863e-08 -8.13775e-08 -5.39418e-09
7.86873e-09 1.07165e-07 1.87755e-08
-4.39566e-08 -1.72573e-07 -1.69735e-08
3.58222e-08 2.45574e-07 2.9715e-08
-6.68586e-08 -3.54699e-07 -4.86839e-08
8.73243e-08 5.1526e-07 7.24353e-08
-1.12423e-07 -7.29245e-07 -1.20865e-07
1.49795e-07 1.03947e-06 1.89698e-07
-2.44934e-07 -1.51761e-06 -2.64795e-07
3.50757e-07 2.19297e-06 3.77384e-07
-5.20115e-07 -3.15982e-06 -5.3748e-07
7.48903e-07 4.53201e-06 7.67261e-07
-1.08295e-06 -6.47151e-06 -1.09972e-06
1.5021e-06 9.17168e-06 1.59859e-06
-2.2168e-06 -1.30385e-05 -2.2596e-06
3.09721e-06 1.84181e-05 3.2163e-06
-4.46505e-06 -2.59816e-05 -4.53567e-06
6.36933e-06 3.65677e-05 6.33906e-06
-9.03975e-06 -5.12669e-05 -8.85071e-06
1.27455e-05 7.15979e-05 1.234e-05
-1.79649e-05 -9.96666e-05 -1.71335e-05
2.51546e-05 0.00013823 2.37175e-05
-3.51637e-05 -0.000191056 -3.27014e-05
4.89141e-05 0.000263101 4.49318e-05
-6.78237e-05 -0.000360999 -6.14978e-05
9.367e-05 0.000493495 8.38374e-05
-0.000128836 -0.000672039 -0.000113873
0.000176518 0.000911668 0.000154058
-0.000240909 -0.00123195 -0.000207562
0.000327373 0.00165811 0.000278538
-0.000443006 -0.00222265 -0.000372291
0.000596971 0.00296716 0.000495538
-0.000800952 -0.00394455 -0.000656835
0.00106989 0.00522162 0.000867008
-0.00142275 -0.0068824 -0.00113963
0.00188338 0.00903175 0.00149166
-0.00248176 -0.0117999 -0.00194416
0.00325495 0.0153475 0.0025232
-0.00424898 -0.0198714 -0.00326088
0.00552021 0.0256115 0.00419656
-0.00713755 -0.0328583 -0.00537823
0.00918451 0.0419618 0.00686427
-0.0117618 -0.0533412 -0.00872546
0.0149904 0.0674963 0.0110473
-0.0190148 -0.0850206 -0.013933
0.024007 0.106617 0.0175065
-0.0301711 -0.133113 -0.0219171
0.0377494 0.165488 0.027344
-0.0470287 -0.204894 -0.034002
0.0583492 0.25269 0.0421494
-0.0721148 -0.310483 -0.0520959
0.0888065 0.380175 0.0642136
-0.108999 -0.464028 -0.0789492
0.13338 0.564735 0.0968395
-0.162775 -0.685511 -0.118529
0.198177 0.830202 0.144791
-0.240782 -1.00341 -0.176555
0.292024 1.21063 0.214933
-0.353629 -1.45844 -0.261259
0.427657 1.75463 0.317128
-0.516571 -2.10847 -0.384446
0.623293 2.53092 0.465486
-0.751288 -3.03485 -0.562958
0.90465 3.63543 0.680083
-1.08821 -4.35042 -0.820689
1.30766 5.20068 0.989313
-1.56973 -6.21063 -1.19134
1.88233 7.40892 1.43311
-2.25481 -8.82915 -1.72217
2.69822 10.5108 2.06738
-3.22555 -12.5 -2.47924
3.85215 14.8509 2.97005
-4.59593 -17.6265 -3.5545
5.47812 20.9009 4.24951
-6.52317 -24.7591 -5.07562
7.76041 29.3018 6.05581
-9.22287 -34.6432 -7.21906
10.9513 40.9208 8.59573
-12.9896 -48.2854 -10.2277
15.3953 56.9274 12.1527
-18.2245 -67.0403 -14.4345
21.5615 78.895 17.1134
-25.4712 -92.7223 -20.2957
30.0862 108.932 24.0018
-35.4619 -127.747 -28.4358
41.832 149.859 33.5208
-49.176 -175.307 -39.7135
57.9692 205.451 46.5972
-67.907 -239.574 -55.3267
80.0972 280.799 64.4103
-93.3278 -325.886 -77.0009
110.442 382.889 88.3428
-127.508 -440.766 -107.383
152.224 521.717 119.667
-172.748 -591.335 -150.977
210.447 712.753 158.422
-230.853 -782.795 -216.564
293.763 983.037 199.939
-300.778 -1010.22 -323.719
1.55148e-08 7.62405e-08 -3.59809e-09
-1.04331e-08 -8.83655e-08 -1.09879e-08
3.08221e-08 1.57412e-07 2.03349e-08
-4.77101e-08 -2.51247e-07 -2.71271e-08
5.9639e-08 3.45148e-07 4.62669e-08
-8.37823e-08 -4.98578e-07 -7.41509e-08
1.07354e-07 6.87007e-07 1.07516e-07
-1.47679e-07 -9.72343e-07 -1.65406e-07
2.27796e-07 1.41601e-06 2.32408e-07
-3.25945e-07 -2.02776e-06 -3.37112e-07
4.72484e-07 2.92033e-06 4.85829e-07
-6.92297e-07 -4.18488e-06 -6.87785e-07
9.89813e-07 5.94068e-06 9.7848e-07
-1.41523e-06 -8.4192e-06 -1.38866e-06
2.02698e-06 1.18919e-05 1.95744e-06
-2.8875e-06 -1.67691e-05 -2.76438e-06
4.09976e-06 2.35637e-05 3.87146e-06
-5.82e-06 -3.30136e-05 -5.42113e-06
8.19445e-06 4.60738e-05 7.54925e-06
-1.15218e-05 -6.40685e-05 -1.0486e-05
1.61349e-05 8.87768e-05 1.44962e-05
-2.25024e-05 -0.000122567 -1.99821e-05
3.12944e-05 0.000168648 2.74246e-05
-4.33333e-05 -0.000231165 -3.75041e-05
5.97535e-05 0.00031564 5.10909e-05
-8.21061e-05 -0.000429381 -6.93294e-05
0.000112346 0.00058183 9.37008e-05
-0.000153091 -0.00078528 -0.000126146
0.000207763 0.00105565 0.000169135
-0.00028076 -0.00141332 -0.000225862
0.000377784 0.0018844 0.000300378
-0.000506148 -0.00250198 -0.000397838
0.000675123 0.00330788 0.000524747
-0.000896515 -0.00435459 -0.000689268
0.00118511 0.00570758 0.000901621
-0.00155944 -0.00744811 -0.00117453
0.00204258 0.00967639 0.00152371
-0.00266295 -0.0125153 -0.0019686
0.00345555 0.0161146 0.00253307
-0.00446313 -0.0206562 -0.00324633
0.00573759 0.0263593 0.00414401
-0.00734175 -0.0334877 -0.00526951
0.00935123 0.0423568 0.00667547
-0.0118568 -0.0533429 -0.00842574
0.014967 0.066894 0.0105975
-0.0188117 -0.0835423 -0.0132841
0.0235459 0.10392 0.0165982
-0.0293544 -0.128778 -0.0206759
0.0364583 0.159008 0.0256817
-0.0451224 -0.195676 -0.0318139
0.0556641 0.240049 0.0393121
-0.0684652 -0.293647 -0.0484654
0.0839856 0.358288 0.059623
-0.10278 -0.436157 -0.0732059
0.125519 0.529874 0.089722
-0.153009 -0.642584 -0.109783
0.186225 0.778055 0.134126
-0.226339 -0.940794 -0.163636
0.274755 1.13618 0.199377
-0.333152 -1.37059 -0.242624
0.403535 1.65162 0.294904
-0.488285 -1.98823 -0.358044
0.590233 2.391 0.434225
-0.712732 -2.87242 -0.52605
0.859759 3.44719 0.636615
-1.03603 -4.13264 -0.769609
1.24712 4.9492 0.929409
-1.49966 -5.92093 -1.12122
1.80148 7.07618 1.3512
-2.16187 -8.44829 -1.62668
2.59179 10.0765 1.95629
-3.10414 -12.0066 -2.35032
3.71419 14.2925 2.82079
-4.43978 -16.997 -3.38213
5.30206 20.1938 4.05098
-6.3255 -23.9682 -4.84756
7.53951 28.4212 5.79455
-8.97734 -33.6677 -6.92059
10.68 39.8464 8.25578
-12.692 -47.1102 -9.84168
15.0715 55.6517 11.716
-17.8754 -65.6678 -13.9422
21.1892 77.4334 16.5608
-25.0796 -91.1857 -19.678
29.6811 107.341 23.3149
-35.0523 -126.133 -27.6754
41.4292 148.264 32.6854
-48.7976 -173.791 -38.7999
57.6352 204.087 45.6092
-67.6493 -238.47 -54.2628
79.9476 280.067 63.2858
-93.3432 -325.718 -75.8139
110.667 383.444 87.134
-128.045 -442.384 -106.14
153.124 524.582 118.489
-174.202 -596.074 -149.805
212.479 719.468 157.497
-233.846 -792.732 -215.671
297.6 995.833 199.675
-306.285 -1028.58 -323.408
2.63167e-08 1.0432e-07 6.77391e-09
-3.16553e-08 -1.41756e-07 -1.38273e-08
4.56726e-08 2.3463e-07 1.25058e-08
-6.37794e-08 -3.36921e-07 -3.64693e-08
7.65576e-08 4.60268e-07 6.26117e-08
-1.03706e-07 -6.50384e-07 -9.15889e-08
1.47159e-07 9.06059e-07 1.46865e-07
-2.08639e-07 -1.29478e-06 -2.00275e-07
3.07328e-07 1.86286e-06 2.9076e-07
-4.32148e-07 -2.64904e-06 -4.22761e-07
6.28643e-07 3.78746e-06 5.92054e-07
-9.06462e-07 -5.37289e-06 -8.39571e-07
1.28691e-06 7.57237e-06 1.18996e-06
-1.83579e-06 -1.06624e-05 -1.66669e-06
2.60433e-06 1.49599e-05 2.34222e-06
-3.67852e-06 -2.09349e-05 -3.26685e-06
5.19333e-06 2.92013e-05 4.55572e-06
-7.28116e-06 -4.05733e-05 -6.31436e-06
1.01854e-05 5.61713e-05 8.74122e-06
-1.42013e-05 -7.74833e-05 -1.202e-05
1.97098e-05 0.000106477 1.64991e-05
-2.7261e-05 -0.000145791 -2.25321e-05
3.75601e-05 0.000198878 3.06633e-05
-5.15247e-05 -0.000270216 -4.15774e-05
7.04165e-05 0.000365721 5.61452e-05
-9.58279e-05 -0.000493028 -7.55075e-05
0.000129864 0.000661963 0.000101167
-0.000175245 -0.000885162 -0.000134981
0.000235476 0.00117874 0.000179378
-0.000315027 -0.00156312 -0.00023741
0.000419621 0.00206411 0.000312933
-0.000556445 -0.00271403 -0.00041081
0.000734589 0.00355324 0.00053711
-0.000965378 -0.00463175 -0.000699407
0.0012629 0.00601129 0.000907115
-0.00164459 -0.00776764 -0.00117183
0.00213189 0.00999331 0.00150788
-0.00275099 -0.0128007 -0.00193285
0.00353386 0.016326 0.00246828
-0.00451926 -0.0207334 -0.00314048
0.00575403 0.0262199 0.00398159
-0.00729467 -0.0330223 -0.00503066
0.00920921 0.0414236 0.00633531
-0.0115794 -0.0517626 -0.00795331
0.0145035 0.0644443 0.00995489
-0.0180998 -0.0799535 -0.0124253
0.0225105 0.0988708 0.0154682
-0.0279074 -0.121893 -0.0192091
0.0344976 0.149857 0.0238006
-0.0425318 -0.18377 -0.0294276
0.0523138 0.224846 0.0363147
-0.0642113 -0.274546 -0.0447336
0.07867 0.334632 0.0550136
-0.0962292 -0.407223 -0.067553
0.11754 0.494866 0.0828332
-0.14339 -0.600616 -0.101435
0.174721 0.728123 0.124059
-0.212669 -0.881745 -0.151548
0.258589 1.06667 0.184916
-0.314102 -1.28905 -0.22538
0.381139 1.5562 0.274399
-0.462004 -1.87676 -0.333721
0.559439 2.26101 0.405434
-0.67671 -2.72107 -0.492038
0.817704 3.27132 0.59651
-0.987047 -3.92877 -0.722406
1.19024 4.71351 0.873956
-1.43382 -5.64931 -1.0562
1.72552 6.76416 1.27512
-2.07453 -8.09104 -1.53785
2.4917 9.66875 1.85281
-2.98982 -11.5428 -2.23005
3.58406 13.7667 2.68135
-4.29217 -16.4029 -3.22084
5.13528 19.5252 3.86488
-6.1379 -23.2189 -4.63338
7.32952 27.5854 5.5487
-8.7436 -32.7404 -6.63919
10.4215 38.8238 7.93468
-12.408 -45.99 -9.47644
14.7619 54.4337 11.3021
-17.5412 -64.3556 -13.4747
20.8324 76.0342 16.035
-24.7041 -89.7132 -19.0891
29.2922 105.815 22.6589
-34.6589 -124.585 -26.948
41.0425 146.733 31.8846
-48.4348 -172.338 -37.9227
57.3162 202.781 44.6587
-67.4057 -237.421 -53.2374
79.8107 279.385 62.2
-93.3698 -325.595 -74.6653
110.901 384.038 85.9629
-128.59 -444.033 -104.932
154.031 527.474 117.344
-175.663 -600.838 -148.661
214.519 726.208 156.597
-236.85 -802.702 -214.796
301.453 1008.68 199.423
-311.818 -1047.03 -323.095
3.66975e-08 1.5917e-07 -1.77501e-09
-5.00329e-08 -2.2468e-07 -8.33521e-09
6.189e-08 3.0538e-07 2.77192e-08
-6.79223e-08 -4.07093e-07 -5.19584e-08
9.4573e-08 5.79619e-07 7.71467e-08
-1.43311e-07 -8.20209e-07 -1.16048e-07
1.88402e-07 1.17087e-06 1.70565e-07
-2.85303e-07 -1.67967e-06 -2.46455e-07
3.87474e-07 2.37436e-06 3.57019e-07
-5.64779e-07 -3.37235e-06 -5.00793e-07
8.15616e-07 4.7586e-06 7.0563e-07
-1.14684e-06 -6.68199e-06 -9.93569e-07
1.6309e-06 9.37378e-06 1.38918e-06
-2.30873e-06 -1.3104e-05 -1.94042e-06
3.2396e-06 1.82555e-05 2.70251e-06
-4.54367e-06 -2.53345e-05 -3.7523e-06
6.34386e-06 3.50324e-05 5.18121e-06
-8.81735e-06 -4.82614e-05 -7.13394e-06
1.22427e-05 6.62513e-05 9.7677e-06
-1.68983e-05 -9.06017e-05 -1.33373e-05
2.32468e-05 0.000123438 1.81331e-05
-3.18641e-05 -0.00016753 -2.45577e-05
4.34714e-05 0.000226458 3.31374e-05
-5.90832e-05 -0.000304911 -4.45295e-05
7.99615e-05 0.000408896 5.96038e-05
-0.000107746 -0.000546091 -7.94752e-05
0.000144568 0.000726322 0.00010554
-0.000193157 -0.000962038 -0.000139591
0.000256921 0.00126889 0.0001839
-0.00034026 -0.00166657 -0.000241306
0.000448624 0.00217958 0.000315385
-0.000588863 -0.00283835 -0.000410593
0.000769512 0.00368045 0.000532476
-0.00100108 -0.00475203 -0.000687912
0.00129657 0.00610962 0.000885392
-0.00167192 -0.00782203 -0.0011354
0.00214653 0.00997286 0.00145081
-0.00274414 -0.0126633 -0.00184744
0.00349349 0.0160156 0.00234467
-0.00442945 -0.0201771 -0.00296624
0.00559423 0.0253253 0.00374115
-0.00703892 -0.0316737 -0.00470486
0.00882529 0.0394796 0.00590067
-0.0110283 -0.0490531 -0.00738144
0.0137385 0.0607679 0.00921173
-0.0170662 -0.0750756 -0.0114702
0.0211451 0.0925218 0.014253
-0.026138 -0.113767 -0.017677
0.0322428 0.139609 0.0218848
-0.0397003 -0.171014 -0.0270499
0.0488031 0.209151 0.0333832
-0.0599066 -0.255429 -0.041141
0.0734413 0.311548 0.0506339
-0.0899275 -0.379551 -0.0622387
0.109993 0.461888 0.076411
-0.134395 -0.561494 -0.0937017
0.164039 0.681875 0.114776
-0.200016 -0.827214 -0.140434
0.243631 1.0025 0.171642
-0.296445 -1.21365 -0.209559
0.360327 1.46775 0.255578
-0.437515 -1.77318 -0.311372
0.53068 2.13993 0.378943
-0.643015 -2.57987 -0.46069
0.778334 3.10708 0.559483
-0.941179 -3.73826 -0.678751
1.13696 4.49318 0.822588
-1.37211 -5.39522 -0.995881
1.65427 6.47198 1.20444
-1.99248 -7.75601 -1.45521
2.3975 9.28569 1.75639
-2.88201 -11.1062 -2.1178
3.46109 13.2706 2.55097
-4.15243 -15.8414 -3.06976
4.97714 18.8922 3.69022
-5.95976 -22.5084 -4.43199
7.12984 26.7917 5.31712
-8.52101 -31.8586 -6.37364
10.1749 37.8497 7.63113
-12.1367 -44.9213 -9.13054
14.4659 53.2703 10.9093
-17.2213 -63.1004 -13.0303
20.4904 74.6943 15.5344
-24.3437 -88.3016 -18.5274
28.9189 104.351 22.032
-34.2811 -123.099 -26.2515
40.6713 145.264 31.1165
-48.0872 -170.945 -37.0796
57.0116 201.533 43.7438
-67.1756 -236.425 -52.2483
79.6862 278.753 61.1512
-93.4075 -325.516 -73.5535
111.146 384.67 84.8278
-129.143 -445.716 -103.758
154.945 530.395 116.231
-177.131 -605.628 -147.545
216.567 732.977 155.72
-239.864 -812.711 -213.936
305.322 1021.59 199.184
-317.378 -1065.57 -322.781
5.57587e-08 2.1424e-07 -5.6727e-10
-5.6959e-08 -2.70027e-07 -1.63195e-08
6.65129e-08 3.66431e-07 3.89471e-08
-8.64059e-08 -5.15215e-07 -6.30537e-08
1.35456e-07 7.39503e-07 9.10911e-08
-1.71413e-07 -1.04206e-06 -1.40907e-07
2.51088e-07 1.48195e-06 2.03234e-07
-3.47526e-07 -2.08618e-06 -2.94766e-07
5.01365e-07 2.93887e-06 4.15564e-07
-7.15668e-07 -4.13555e-06 -5.78891e-07
1.0072e-06 5.7882e-06 8.13385e-07
-1.42037e-06 -8.08305e-06 -1.13563e-06
2.00039e-06 1.12504e-05 1.57631e-06
-2.7917e-06 -1.55903e-05 -2.19003e-06
3.89078e-06 2.15296e-05 3.02625e-06
-5.40649e-06 -2.96236e-05 -4.16253e-06
7.47882e-06 4.06068e-05 5.7041e-06
-1.03243e-05 -5.54727e-05 -7.77407e-06
1.41802e-05 7.54847e-05 1.05586e-05
-1.94011e-05 -0.000102313 -1.42921e-05
2.64456e-05 0.000138145 1.92601e-05
-3.58837e-05 -0.000185768 -2.58658e-05
4.84972e-05 0.000248815 3.45973e-05
-6.52616e-05 -0.000331911 -4.60957e-05
8.74433e-05 0.00044093 6.11809e-05
-0.000116665 -0.000583352 -8.0884e-05
0.000154996 0.000768592 0.000106505
-0.000205007 -0.00100843 -0.000139712
0.000269989 0.00131759 0.000182565
-0.000354013 -0.00171434 -0.000237661
0.000462163 0.0022213 0.000308244
-0.000600757 -0.00286627 -0.000398325
0.000777551 0.00368338 0.000512908
-0.00100213 -0.00471435 -0.000658164
0.00128622 0.00601002 0.000841716
-0.00164416 -0.00763222 -0.00107298
0.00209345 0.00965599 0.00136355
-0.00265544 -0.0121723 -0.00172766
0.00335607 0.0152914 0.00218286
-0.00422699 -0.0191469 -0.00275066
0.00530673 0.0239005 0.0034575
-0.00664222 -0.0297487 -0.00433583
0.00829079 0.0369298 0.00542542
-0.0103223 -0.0457329 -0.00677507
0.0128222 0.0565099 0.00844456
-0.0158949 -0.069688 -0.010507
0.0196679 0.0857866 0.0130521
-0.0242968 -0.105436 -0.016189
0.0299715 0.129402 0.0200515
-0.0369232 -0.158609 -0.0248023
0.0454328 0.194178 0.0306399
-0.0558412 -0.237458 -0.0378055
0.0685606 0.290076 0.0465923
-0.0840895 -0.353985 -0.0573559
0.103029 0.431528 0.0705273
-0.126103 -0.525514 -0.0866282
0.154182 0.639302 0.106289
-0.188316 -0.776915 -0.130271
0.229762 0.943155 0.159493
-0.280034 -1.14377 -0.195059
0.340947 1.3856 0.238303
-0.414681 -1.67683 -0.290824
0.503843 2.02721 0.354544
-0.611559 -2.44833 -0.431772
0.74156 2.95398 0.525272
-0.898301 -3.56051 -0.638357
1.0871 4.28735 0.774988
-1.31427 -5.15747 -0.939902
1.58734 6.19808 1.13874
-1.91527 -7.44131 -1.37826
2.30869 8.9252 1.66645
-2.78019 -10.6945 -2.01291
3.34476 12.8022 2.42892
-4.02005 -15.3104 -2.92806
4.82711 18.2925 3.52613
-5.7905 -21.8343 -4.24244
6.93982 26.0375 5.09878
-8.30888 -31.0193 -6.12284
9.9395 36.9213 7.34392
-11.8774 -43.9013 -8.80268
14.1826 52.1583 10.5364
-16.9147 -61.8992 -12.6076
20.1625 73.4104 15.0574
-23.9979 -86.9476 -17.9911
28.5603 102.946 21.4325
-33.9183 -121.672 -25.5842
40.3149 143.853 30.3794
-47.7541 -169.61 -36.2691
56.721 200.34 42.8626
-66.9587 -235.482 -51.2939
79.574 278.169 60.1376
-93.4563 -325.48 -72.4766
111.4 385.34 83.727
-129.706 -447.433 -102.617
155.868 533.346 115.149
-178.607 -610.447 -146.455
218.624 739.778 154.867
-242.891 -822.762 -213.091
309.21 1034.55 198.957
-322.967 -1084.2 -322.464
6.25243e-08 2.49797e-07 2.81403e-09
-6.4318e-08 -3.2597e-07 -2.61496e-08
8.13433e-08 4.61004e-07 4.59248e-08
-1.23704e-07 -6.50153e-07 -7.26255e-08
1.50981e-07 9.10293e-07 1.13169e-07
-2.21031e-07 -1.28526e-06 -1.60661e-07
3.15869e-07 1.80174e-06 2.3376e-07
-4.33083e-07 -2.52237e-06 -3.31718e-07
6.19918e-07 3.53104e-06 4.64102e-07
-8.66996e-07 -4.91322e-06 -6.53589e-07
1.20374e-06 6.82606e-06 9.11549e-07
-1.69717e-06 -9.45484e-06 -1.26022e-06
2.34892e-06 1.30301e-05 1.74502e-06
-3.25593e-06 -1.791e-05 -2.39445e-06
4.51396e-06 2.45265e-05 3.27431e-06
-6.20526e-06 -3.34555e-05 -4.46492e-06
8.51781e-06 4.54756e-05 6.05576e-06
-1.16494e-05 -6.1567e-05 -8.18666e-06
1.58377e-05 8.30154e-05 1.10299e-05
-2.14761e-05 -0.000111509 -1.47958e-05
2.89813e-05 0.000149169 1.97822e-05
-3.89356e-05 -0.000198747 -2.63447e-05
5.21101e-05 0.000263741 3.49464e-05
-6.94344e-05 -0.000348552 -4.61858e-05
9.21239e-05 0.000458767 6.08e-05
-0.00012173 -0.000601376 -7.97357e-05
0.000160141 0.000785089 0.000104195
-0.000209783 -0.00102077 -0.000135656
0.000273668 0.00132185 0.000175996
-0.00035549 -0.0017049 -0.000227548
0.0004599 0.00219036 0.0002932
-0.000592571 -0.00280323 -0.000376573
0.000760496 0.00357415 0.000482135
-0.00097232 -0.00454057 -0.000615419
0.00123856 0.00574813 0.000783299
-0.00157217 -0.00725253 -0.00099425
0.001989 0.00912166 0.00125875
-0.00250845 -0.0114382 -0.00158976
0.00315432 0.0143032 0.00200323
-0.0039558 -0.0178396 -0.00251887
0.00494864 0.0221978 0.00316095
-0.00617682 -0.0275611 -0.00395938
0.00769425 0.0341537 0.00495097
-0.00956709 -0.0422491 -0.00618096
0.0118766 0.0521807 0.00770495
-0.0147221 -0.0643551 -0.00959115
0.0182253 0.079267 0.0119232
-0.0225349 -0.0975174 -0.0148034
0.0278321 0.119835 0.018357
-0.0343375 -0.147102 -0.0227367
0.0423189 0.180384 0.0281291
-0.0521012 -0.220967 -0.0347612
0.0640779 0.270401 0.0429093
-0.078725 -0.330547 -0.0529089
0.0966178 0.403649 0.0651677
-0.118451 -0.492397 -0.0801795
0.145064 0.600024 0.0985426
-0.177469 -0.730408 -0.120981
0.216884 0.888197 0.148368
-0.264778 -1.07896 -0.18176
0.322917 1.30935 0.222431
-0.393423 -1.58734 -0.271915
0.478842 1.92241 0.332058
-0.582222 -2.3259 -0.40508
0.707218 2.81127 0.493647
-0.858192 -3.39456 -0.60096
1.04036 4.09482 0.730848
-1.25996 -4.93466 -0.887904
1.5244 5.94091 1.07761
-1.84253 -7.14534 -1.30653
2.22488 8.58559 1.58247
-2.68396 -10.3061 -1.91479
3.23466 12.3595 2.31454
-3.89456 -14.8077 -2.79504
4.68468 17.7241 3.37182
-5.62956 -21.1942 -4.06389
6.75888 25.3203 4.89274
-8.10659 -30.22 -5.88576
9.71475 36.0358 7.07195
-11.6295 -42.9271 -8.49166
13.9114 51.0947 10.182
-16.6209 -60.7489 -12.2052
19.8478 72.1797 14.6024
-23.6658 -85.6486 -17.4788
28.2159 101.597 20.8587
-33.5698 -120.301 -24.9445
39.9728 142.499 29.6715
-47.4352 -168.329 -35.4892
56.4441 199.201 42.0133
-66.7548 -234.59 -50.3724
79.4739 277.632 59.1573
-93.5162 -325.487 -71.4331
111.665 386.05 82.6591
-130.277 -449.184 -101.508
156.799 536.329 114.095
-180.092 -615.298 -145.391
220.691 746.615 154.035
-245.932 -832.858 -212.262
313.117 1047.58 198.741
-328.586 -1102.94 -322.146
7.17357e-08 3.06389e-07 2.88922e-09
-8.05079e-08 -4.02187e-07 -3.02564e-08
1.10038e-07 5.68577e-07 5.01872e-08
-1.37753e-07 -7.80867e-07 -8.57717e-08
1.91136e-07 1.08685e-06 1.28857e-07
-2.73486e-07 -1.52604e-06 -1.78556e-07
3.7192e-07 2.12035e-06 2.59808e-07
-5.22618e-07 -2.95211e-06 -3.65763e-07
7.32647e-07 4.09908e-06 5.05855e-07
-1.00853e-06 -5.64954e-06 -7.14467e-07
1.40561e-06 7.78217e-06 9.83984e-07
-1.93871e-06 -1.06754e-05 -1.3537e-06
2.67209e-06 1.45869e-05 1.85841e-06
-3.68181e-06 -1.98813e-05 -2.52386e-06
5.03942e-06 2.69843e-05 3.42278e-06
-6.87795e-06 -3.64873e-05 -4.62648e-06
9.35574e-06 4.91573e-05 6.21687e-06
-1.26557e-05 -6.59422e-05 -8.33947e-06
1.70621e-05 8.81123e-05 1.11428e-05
-2.28957e-05 -0.000117274 -1.48275e-05
3.05923e-05 0.000155449 1.96701e-05
-4.07225e-05 -0.000205238 -2.5988e-05
5.39688e-05 0.000269892 3.42084e-05
-7.12307e-05 -0.000353495 -4.4871e-05
9.36381e-05 0.000461176 5.86381e-05
-0.000122566 -0.000599284 -7.63728e-05
0.000159787 0.000775731 9.91378e-05
-0.000207486 -0.00100031 -0.000128263
0.000268345 0.00128508 0.00016543
-0.000345753 -0.00164494 -0.000212716
0.000443837 0.00209818 0.000272714
-0.000567706 -0.00266723 -0.000348674
0.000723705 0.00337967 0.000444599
-0.000919574 -0.00426927 -0.000565496
0.00116492 0.00537745 0.000717578
-0.00147154 -0.00675503 -0.000908536
0.001854 0.00846429 0.00114793
-0.00233025 -0.0105817 -0.0014476
0.00292243 0.013201 0.00182219
-0.00365785 -0.0164372 -0.00228986
0.00457019 0.0204316 0.002873
-0.00570092 -0.025357 -0.00359929
0.00710114 0.0314253 0.00450288
-0.00883365 -0.0388955 -0.00562582
0.0109755 0.0480837 0.00701988
-0.0136213 -0.0593755 -0.00874868
0.0168864 0.0732397 0.0108903
-0.0209122 -0.0902463 -0.0135405
0.0258706 0.111086 0.0168165
-0.0319712 -0.136596 -0.0208616
0.0394689 0.167789 0.0258511
-0.0486731 -0.205888 -0.0319985
0.0599598 0.252371 0.0395643
-0.0737846 -0.30902 -0.0488653
0.0907001 0.377984 0.060287
-0.111375 -0.461853 -0.0742976
0.13662 0.563742 0.091465
-0.167413 -0.687398 -0.112478
0.204935 0.837322 0.13817
-0.250612 -1.01891 -0.16955
0.30616 1.23863 0.207837
-0.373643 -1.50422 -0.254502
0.455543 1.82494 0.311319
-0.554838 -2.21183 -0.380424
0.675102 2.67807 0.464388
-0.820616 -3.23938 -0.566301
0.996507 3.91447 0.68987
-1.2089 -4.7256 -0.839547
1.46513 5.69922 1.02066
-1.77393 -6.86673 -1.23959
2.14574 8.26542 1.50395
-2.59295 -9.93936 -1.8229
3.13037 11.9409 2.20724
-3.77551 -14.3316 -2.67006
4.54935 17.1848 3.22658
-5.47642 -20.586 -3.89555
6.58647 24.6378 4.69814
-7.91356 -29.4582 -5.66144
9.50001 35.1908 6.81418
-11.3924 -41.9961 -8.19638
13.6516 50.0771 9.84492
-16.3392 -59.647 -11.8219
19.5458 70.9995 14.1682
-23.3469 -84.4019 -16.989
27.8849 100.301 20.3093
-33.235 -118.985 -24.3308
39.6445 141.199 28.9912
-47.1298 -167.103 -34.7385
56.1804 198.114 41.1945
-66.5636 -233.747 -49.4822
79.3857 277.141 58.2089
-93.5872 -325.537 -70.4214
111.939 386.798 81.6225
-130.858 -450.97 -100.428
157.739 539.345 113.07
-181.586 -620.182 -144.351
222.769 753.489 153.225
-248.987 -843.005 -211.446
317.046 1060.69 198.536
-334.238 -1121.78 -321.826
9.18548e-08 3.76907e-07 2.09288e-10
-1.01835e-07 -4.86396e-07 -2.67625e-08
1.32099e-07 6.67711e-07 5.47488e-08
-1.64696e-07 -9.1078e-07 -9.23817e-08
2.29484e-07 1.26043e-06 1.39171e-07
-3.14457e-07 -1.7491e-06 -1.96411e-07
4.28599e-07 2.41471e-06 2.82755e-07
-6.0165e-07 -3.33147e-06 -3.92798e-07
8.27558e-07 4.58015e-06 5.43082e-07
-1.13734e-06 -6.26904e-06 -7.51599e-07
1.57008e-06 8.55937e-06 1.02922e-06
-2.15063e-06 -1.16438e-05 -1.40134e-06
2.93919e-06 1.57805e-05 1.90298e-06
-4.00964e-06 -2.1313e-05 -2.56855e-06
5.43518e-06 2.86707e-05 3.45615e-06
-7.34899e-06 -3.84184e-05 -4.63301e-06
9.89589e-06 5.12836e-05 6.18364e-06
-1.326e-05 -6.81828e-05 -8.22749e-06
1.77029e-05 9.02953e-05 1.09098e-05
-2.3536e-05 -0.000119111 -1.4412e-05
3.11623e-05 0.00015651 1.8973e-05
-4.10957e-05 -0.000204858 -2.48909e-05
5.39764e-05 0.000267115 3.25449e-05
-7.06144e-05 -0.000346982 -4.24131e-05
9.20215e-05 0.000449058 5.50997e-05
-0.000119461 -0.000579059 -7.1361e-05
0.000154509 0.000744068 9.21497e-05
-0.000199124 -0.000952845 -0.000118658
0.00025574 0.00121622 0.00015238
-0.000327373 -0.00154754 -0.000195184
0.000417762 0.00196328 0.000249408
-0.000531545 -0.00248377 -0.000317967
0.000674467 0.00313405 0.000404502
-0.000853644 -0.00394502 -0.000513551
0.0010779 0.00495478 0.000650771
-0.00135818 -0.00621032 -0.0008232
0.00170804 0.00776955 0.0010396
-0.00214428 -0.00970387 -0.00131083
0.00268768 0.0121012 0.00165042
-0.00336399 -0.0150697 -0.00207511
0.00420497 0.0187423 0.00260562
-0.00524983 -0.0232822 -0.00326762
0.00654688 0.0288891 0.00409279
-0.00815551 -0.0358075 -0.00512024
0.0101486 0.0443359 0.00639817
-0.0126155 -0.0548383 -0.00798588
0.0156657 0.0677578 0.00995631
-0.0194328 -0.0836333 -0.012399
0.02408 0.103119 0.0154237
-0.0298066 -0.127011 -0.019165
0.0368554 0.15627 0.0237874
-0.0455221 -0.192065 -0.0294921
0.0561666 0.235809 0.0365247
-0.0692266 -0.289211 -0.0451847
0.0852335 0.354336 0.0558371
-0.104832 -0.433677 -0.068926
0.128805 0.53024 0.0849913
-0.158098 -0.647645 -0.104689
0.193855 0.790243 0.128814
-0.237458 -0.963268 -0.158331
0.290575 1.173 0.194407
-0.355216 -1.42695 -0.238453
0.433799 1.73416 0.292173
-0.529236 -2.1054 -0.357625
0.645027 2.55358 0.437286
-0.785371 -3.09411 -0.534142
0.955308 3.74536 0.651782
-1.16087 -4.52925 -0.794524
1.40929 5.47188 0.96754
-1.70921 -6.60426 -1.17705
2.07094 7.96331 1.43049
-2.5068 -9.59274 -1.73678
3.03151 11.5446 2.10651
-3.66248 -13.8802 -2.55251
4.42067 16.6727 3.08975
-5.33061 -20.0078 -3.73668
6.42207 23.9879 4.51419
-7.72927 -28.7318 -5.44904
9.29471 34.3838 6.56969
-11.1653 -41.1059 -7.91582
13.4026 49.1029 9.52414
-16.069 -58.591 -11.4564
19.2559 69.8673 13.7536
-23.0405 -83.2049 -16.5205
27.567 99.0564 19.7828
-32.9134 -117.721 -23.7417
39.3295 139.952 28.3372
-46.8376 -165.927 -34.0154
55.9296 197.077 40.4045
-66.3849 -232.952 -48.6217
79.3094 276.696 57.291
-93.6692 -325.63 -69.4401
112.224 387.585 80.616
-131.449 -452.793 -99.3765
158.688 542.396 112.072
-183.091 -625.103 -143.334
224.86 760.406 152.436
-252.058 -853.205 -210.644
320.997 1073.86 198.342
-339.924 -1140.74 -321.503
1.08398e-07 4.34257e-07 -2.97412e-09
-1.20607e-07 -5.59461e-07 -2.62557e-08
1.48842e-07 7.56638e-07 5.7911e-08
-1.93449e-07 -1.0296e-06 -9.68744e-08
2.5882e-07 1.41554e-06 1.45475e-07
-3.52304e-07 -1.94021e-06 -2.09333e-07
4.8211e-07 2.65538e-06 2.9484e-07
-6.60984e-07 -3.6309e-06 -4.08294e-07
9.06864e-07 4.94617e-06 5.60421e-07
-1.23969e-06 -6.71737e-06 -7.65671e-07
1.69221e-06 9.09527e-06 1.03863e-06
-2.30135e-06 -1.22665e-05 -1.40354e-06
3.11668e-06 1.64797e-05 1.88911e-06
-4.20539e-06 -2.20587e-05 -2.53216e-06
5.65379e-06 2.94128e-05 3.38107e-06
-7.5683e-06 -3.90659e-05 -4.49896e-06
1.00928e-05 5.16912e-05 5.96376e-06
-1.34061e-05 -6.81359e-05 -7.87938e-06
1.77354e-05 8.94732e-05 1.03755e-05
-2.3373e-05 -0.000117057 -1.36181e-05
3.06836e-05 0.000152582 1.78165e-05
-4.01251e-05 -0.000198172 -2.32398e-05
5.22804e-05 0.00025648 3.02236e-05
-6.78729e-05 -0.000330814 -3.91938e-05
8.78105e-05 0.000425288 5.06876e-05
-0.000113228 -0.000545016 -6.5381e-05
0.000145538 0.000696345 8.41256e-05
-0.000186505 -0.000887154 -0.00010799
0.000238329 0.00112721 0.000138318
-0.000303745 -0.00142862 -0.000176797
0.00038617 0.0018064 0.000225539
-0.000489856 -0.00227916 -0.000287192
0.000620099 0.00286999 0.000365071
-0.000783502 -0.00360746 -0.000463318
0.000988278 0.00452698 0.000587111
-0.00124465 -0.00567238 -0.000742907
0.00156533 0.00709783 0.000938756
-0.00196609 -0.00887022 -0.00118468
0.00246649 0.0110721 0.00149314
-0.00309074 -0.013805 -0.00187962
0.00386877 0.0171938 0.0023633
-0.00483751 -0.0213919 -0.00296797
0.00604245 0.0265872 0.00372304
-0.00753957 -0.0330098 -0.00466488
0.00939767 0.0409406 0.00583836
-0.0117012 -0.0507231 -0.00729879
0.0145536 0.062776 0.00911427
-0.0180817 -0.0776096 -0.0113686
0.0224408 0.0958454 0.0141647
-0.0278206 -0.118239 -0.0176288
0.0344532 0.14571 0.0219158
-0.0426216 -0.179374 -0.0272152
0.0526711 0.220585 0.0337589
-0.0650221 -0.270982 -0.0418304
0.0801863 0.332552 0.0517753
-0.0987852 -0.407693 -0.0640155
0.121574 0.499305 0.0790645
-0.149466 -0.610882 -0.097547
0.183571 0.746637 0.120222
-0.225229 -0.911639 -0.148013
0.276061 1.11199 0.182035
-0.338024 -1.35501 -0.223644
0.41348 1.64949 0.274477
-0.505275 -2.00598 -0.336515
0.616836 2.4371 0.41215
-0.752284 -2.95797 -0.504266
0.916573 3.58664 0.61634
-1.11565 -4.34469 -0.752559
1.35663 5.25785 0.917952
-1.64807 -6.35677 -1.11858
2.00019 7.67798 1.36167
-2.42519 -9.26489 -1.65597
2.93771 11.1692 2.01183
-3.5551 -13.452 -2.44185
4.29825 16.1862 2.96072
-5.19169 -19.4575 -3.58662
6.26522 23.3686 4.34015
-7.55321 -28.0387 -5.24775
9.09834 33.6128 6.3376
-10.948 -40.2543 -7.64906
13.164 48.1698 9.21861
-15.8097 -57.5784 -11.1077
18.9775 68.7807 13.3574
-22.7462 -82.0555 -16.072
27.2614 97.8609 19.278
-32.6045 -116.507 -23.1759
39.0273 138.754 27.7079
-46.5582 -164.802 -33.3185
55.6913 196.089 39.642
-66.2183 -232.205 -47.7897
79.2446 276.296 56.4021
-93.7623 -325.764 -68.488
112.519 388.412 79.6383
-132.049 -454.653 -98.3528
159.648 545.484 111.1
-184.606 -630.061 -142.34
226.963 767.366 151.666
-255.147 -863.463 -209.855
324.973 1087.12 198.159
-345.646 -1159.81 -321.177
1.19385e-07 4.7944e-07 -3.68528e-09
-1.33781e-07 -6.16994e-07 -2.69922e-08
1.65356e-07 8.3177e-07 5.98368e-08
-2.13727e-07 -1.1243e-06 -9.90015e-08
2.84578e-07 1.52879e-06 1.48322e-07
-3.83498e-07 -2.0778e-06 -2.12844e-07
5.20254e-07 2.82233e-06 2.96035e-07
-7.08107e-07 -3.82454e-06 -4.08164e-07
9.59536e-07 5.16566e-06 5.56877e-07
-1.30394e-06 -6.95667e-06 -7.53254e-07
1.76048e-06 9.33456e-06 1.01594e-06
-2.3714e-06 -1.24794e-05 -1.36293e-06
3.18331e-06 1.66228e-05 1.82088e-06
-4.25715e-06 -2.2061e-05 -2.42279e-06
5.67164e-06 2.91689e-05 3.21309e-06
-7.52761e-06 -3.84254e-05 -4.24651e-06
9.9518e-06 5.04361e-05 5.59451e-06
-1.31089e-05 -6.59637e-05 -7.34812e-06
1.72017e-05 8.59721e-05 9.62328e-06
-2.24941e-05 -0.000111671 -1.25658e-05
2.9309e-05 0.000144571 1.63658e-05
-3.80626e-05 -0.000186569 -2.12572e-05
4.92727e-05 0.000240036 2.75399e-05
-6.35894e-05 -0.000307929 -3.55957e-05
8.18266e-05 0.000393941 4.59029e-05
-0.00010501 -0.000502675 -5.90686e-05
0.000134416 0.000639872 7.58584e-05
-0.000171655 -0.000812687 -9.72362e-05
0.000218729 0.00103003 0.000124419
-0.00027816 -0.00130303 -0.000158936
0.0003531 0.0016455 0.000202707
-0.000447486 -0.00207468 -0.000258149
0.000566252 0.00261197 0.000328288
-0.000715553 -0.00328399 -0.000416919
0.000903072 0.00412377 0.00052879
-0.00113838 -0.00517224 -0.000669836
0.00143338 0.00648004 0.000847466
-0.00180287 -0.00810977 -0.00107092
0.0022652 0.0101387 0.00135169
-0.00284309 -0.0126619 -0.0017041
0.00356463 0.0157964 0.00214592
-0.00446454 -0.0196862 -0.00269918
0.00558563 0.0245076 0.00339121
-0.00698066 -0.0304772 -0.00425584
0.00871458 0.03786 0.00533485
-0.0108673 -0.0469803 -0.00667987
0.013537 0.0582348 0.00835458
-0.0168443 -0.0721078 -0.0104374
0.0209371 0.0891906 0.013025
-0.0259965 -0.110204 -0.0162359
0.0322444 0.136025 0.020216
-0.0399521 -0.167722 -0.0251442
0.0494507 0.206591 0.0312395
-0.0611442 -0.254206 -0.0387702
0.0755249 0.312476 0.0480642
-0.0931919 -0.383711 -0.0595222
0.114874 0.470706 0.0736328
-0.141456 -0.576838 -0.0909916
0.174011 0.706185 0.112324
-0.213842 -0.863666 -0.13851
0.262524 1.05521 0.170623
-0.321966 -1.28794 -0.209961
0.394473 1.57044 0.2581
-0.482828 -1.91301 -0.316948
0.590387 2.32802 0.388812
-0.721195 -2.83028 -0.476483
0.880122 3.43755 0.583327
-1.07302 -4.17104 -0.713408
1.30693 5.05616 0.871611
-1.59028 -6.12318 -1.06384
1.93321 7.40829 1.29715
-2.34781 -8.95452 -1.58008
2.84865 10.8133 1.92278
-3.453 -13.0454 -2.33759
4.18169 15.7236 2.83896
-5.05924 -18.9335 -3.44477
6.1155 22.7782 4.17536
-7.38492 -27.3769 -5.05685
8.91042 32.8757 6.11713
-10.7397 -39.4392 -7.39522
12.9351 47.2757 8.92742
-15.5608 -56.6073 -10.7748
18.7101 67.7378 12.9785
-22.4633 -80.9515 -15.6424
26.9677 96.7123 18.7937
-32.3078 -115.34 -22.6322
38.7374 137.605 27.1023
-46.2911 -163.725 -32.6466
55.4653 195.148 38.9057
-66.0636 -231.503 -46.9848
79.1914 275.94 55.5409
-93.8663 -325.94 -67.5637
112.825 389.279 78.6882
-132.66 -456.551 -97.3554
160.618 548.609 110.153
-186.133 -635.061 -141.368
229.08 774.374 150.916
-258.254 -873.783 -209.078
328.974 1100.46 197.986
-351.405 -1179.01 -320.848
1.29035e-07 5.16462e-07 -4.91653e-09
-1.43583e-07 -6.621e-07 -2.57476e-08
1.79844e-07 8.85021e-07 5.79391e-08
-2.2887e-07 -1.18334e-06 -9.77436e-08
2.99868e-07 1.59374e-06 1.4681e-07
-4.03678e-07 -2.15084e-06 -2.07535e-07
5.40824e-07 2.89523e-06 2.9015e-07
-7.2681e-07 -3.88825e-06 -3.9681e-07
9.83995e-07 5.21212e-06 5.35775e-07
-1.3168e-06 -6.95783e-06 -7.21982e-07
1.76681e-06 9.25957e-06 9.65187e-07
-2.36117e-06 -1.2279e-05 -1.2856e-06
3.13993e-06 1.62247e-05 1.70654e-06
-4.16737e-06 -2.13661e-05 -2.25572e-06
5.50699e-06 2.80369e-05 2.97463e-06
-7.24936e-06 -3.66662e-05 -3.91147e-06
9.51627e-06 4.77965e-05 5.12775e-06
-1.24419e-05 -6.21035e-05 -6.70741e-06
1.6219e-05 8.0449e-05 8.74941e-06
-2.10772e-05 -0.000103905 -1.13868e-05
2.73057e-05 0.000133825 1.47859e-05
-3.52833e-05 -0.000171912 -1.91537e-05
4.5471e-05 0.000220288 2.47629e-05
-5.84523e-05 -0.000281623 -3.19532e-05
7.4978e-05 0.000359266 4.11538e-05
-9.59689e-05 -0.000457399 -5.29151e-05
0.000122603 0.000581273 6.79268e-05
-0.000156357 -0.000737456 -8.70635e-05
0.00019908 0.00093416 0.000111432
-0.000253112 -0.00118166 -0.00014242
0.000321376 0.00149277 0.000181783
-0.000407539 -0.00188349 -0.000231728
0.000516204 0.00237374 0.000295023
-0.000653112 -0.0029883 -0.000375149
0.000825435 0.00375792 0.000476465
-0.00104212 -0.00472077 -0.000604426
0.0013143 0.0059241 0.000765856
-0.00165582 -0.00742635 -0.000969272
0.00208384 0.00929967 0.0012253
-0.00261967 -0.0116331 -0.00154716
0.00328969 0.0145363 0.00195133
-0.00412654 -0.0181443 -0.00245826
0.00517057 0.0226232 0.00309334
-0.00647161 -0.028177 -0.00388804
0.00809115 0.0350561 0.00488136
-0.010105 -0.0435678 -0.00612151
0.0126064 0.0540883 0.00766809
-0.0157102 -0.0670781 -0.00959464
0.0195574 0.0831 0.0119918
-0.0243212 -0.102842 -0.0149714
0.0302137 0.127141 0.0186706
-0.0374947 -0.157019 -0.0232584
0.046482 0.193719 0.028942
-0.0575638 -0.238752 -0.0359754
0.0712142 0.293951 0.0446698
-0.0880108 -0.361544 -0.0554059
0.108658 0.444227 0.0686489
-0.134011 -0.545266 -0.0849669
0.165113 0.668612 0.105052
-0.203227 -0.819037 -0.129749
0.249888 1.0023 0.160083
-0.306954 -1.22536 -0.197304
0.376677 1.49657 0.242926
-0.461779 -1.826 -0.298789
0.565549 2.22577 0.367121
-0.691956 -2.7104 -0.450619
0.845788 3.29734 0.552545
-1.03281 -4.00751 -0.676842
1.25997 4.86593 0.828263
-1.5356 -5.90254 -1.01255
1.86975 7.15316 1.2366
-2.27441 -8.66049 -1.50875
2.76404 10.4756 1.83893
-3.35586 -12.659 -2.23927
4.07064 15.2834 2.72395
-4.9329 -18.4343 -3.31058
5.97249 22.2148 4.01921
-7.22399 -26.7448 -4.87566
8.7305 32.1707 5.90753
-10.5401 -38.6587 -7.15352
12.7156 46.4187 8.6497
-15.3219 -55.6755 -10.4568
18.4531 66.7363 12.616
-22.1915 -79.8908 -15.2307
26.6855 95.6085 18.3288
-32.0228 -114.22 -22.1093
38.4596 136.503 26.519
-46.0361 -162.695 -31.9984
55.2513 194.254 38.1942
-65.9207 -230.847 -46.2056
79.1496 275.627 54.7062
-93.9815 -326.158 -66.666
113.141 390.185 77.7646
-133.282 -458.488 -96.3833
161.599 551.773 109.23
-187.672 -640.102 -140.416
231.212 781.432 150.185
-261.38 -884.168 -208.313
333.002 1113.9 197.824
-357.204 -1198.34 -320.517
1.33745e-07 5.36815e-07 -6.37923e-09
-1.52638e-07 -6.85615e-07 -2.31418e-08
1.84919e-07 9.04892e-07 5.65679e-08
-2.32137e-07 -1.20077e-06 -9.50376e-08
3.09133e-07 1.60843e-06 1.4007e-07
-4.05327e-07 -2.14872e-06 -1.99881e-07
5.40603e-07 2.86997e-06 2.7567e-07
-7.27261e-07 -3.82754e-06 -3.7305e-07
9.65258e-07 5.08492e-06 5.03363e-07
-1.2911e-06 -6.73841e-06 -6.71079e-07
1.71777e-06 8.90039e-06 8.91762e-07
-2.272e-06 -1.17152e-05 -1.18218e-06
3.00676e-06 1.53746e-05 1.55972e-06
-3.95728e-06 -2.01101e-05 -2.05368e-06
5.19124e-06 2.62232e-05 2.69809e-06
-6.79597e-06 -3.40975e-05 -3.53407e-06
8.86118e-06 4.42079e-05 4.62071e-06
-1.1526e-05 -5.71637e-05 -6.02687e-06
1.49555e-05 7.37304e-05 7.84409e-06
-1.93472e-05 -9.487e-05 -1.01909e-05
2.49818e-05 0.000121808 1.32116e-05
-3.21848e-05 -0.000156071 -1.70983e-05
4.13747e-05 0.000199589 2.20933e-05
-5.31042e-05 -0.000254801 -2.84994e-05
6.80342e-05 0.000324756 3.67112e-05
-8.70291e-05 -0.000413304 -4.72221e-05
0.000111175 0.000525277 6.06583e-05
-0.000141828 -0.000666734 -7.78168e-05
0.000180716 0.000845277 9.97008e-05
-0.000230006 -0.00107042 -0.00012758
0.000292408 0.00135404 0.000163056
-0.000371352 -0.00171099 -0.000208144
0.000471103 0.00215977 0.000265386
-0.000597016 -0.00272339 -0.00033797
0.000755786 0.00343048 0.0004299
-0.000955743 -0.00431656 -0.000546196
0.00120729 0.00542566 0.000693143
-0.00152338 -0.00681232 -0.0008786
0.00192008 0.00854402 0.00111239
-0.0024174 -0.0107042 -0.00140675
0.00304015 0.0133957 0.00177694
-0.00381909 -0.0167457 -0.00224198
0.00479234 0.0209107 0.00282547
-0.00600703 -0.0260834 -0.00355676
0.00752147 0.0325009 0.00447224
-0.00940762 -0.0404543 -0.00561701
0.0117542 0.050301 0.00704688
-0.0146706 -0.0624788 -0.00883087
0.0182914 0.0775238 0.0110542
-0.0227818 -0.0960918 -0.0138221
0.0283449 0.118984 0.017264
-0.0352298 -0.147177 -0.0215394
0.0437414 0.181863 0.0268444
-0.0542532 -0.224492 -0.0334198
0.0672218 0.276832 0.0415609
-0.0832048 -0.341026 -0.0516299
0.102883 0.41968 0.0640698
-0.127085 -0.515953 -0.0794226
0.156823 0.633675 0.0983503
-0.193323 -0.777477 -0.121661
0.23808 0.952964 0.150339
-0.292906 -1.1669 -0.185583
0.359999 1.42746 0.228853
-0.442023 -1.74448 -0.281921
0.542201 2.12982 0.346939
-0.664431 -2.59774 -0.426517
0.813421 3.16539 0.523814
-0.994851 -3.85336 -0.64266
1.21558 4.68636 0.787674
-1.48384 -5.69396 -0.964455
1.80958 6.91163 1.17972
-2.20471 -8.38173 -1.44164
2.6836 10.155 1.75993
-3.26339 -12.2917 -2.14648
3.96479 14.8644 2.61523
-4.8123 -17.9584 -3.18353
5.83582 21.6771 3.87113
-7.07002 -26.1406 -4.70356
8.55818 31.4961 5.70814
-10.3487 -37.911 -6.92322
12.5049 45.5969 8.38465
-15.0924 -54.7812 -10.1528
18.2063 65.7744 12.2689
-21.9302 -78.8717 -14.8359
26.4143 94.5479 17.8822
-31.7492 -113.144 -21.6063
38.1933 135.445 25.9569
-45.7928 -161.71 -31.3727
55.0489 193.404 37.5065
-65.7893 -230.235 -45.4512
79.1191 275.358 53.8969
-94.1076 -326.418 -65.7939
113.469 391.132 76.8665
-133.914 -460.465 -95.4356
162.591 554.979 108.33
-189.224 -645.189 -139.485
233.359 788.543 149.471
-264.527 -894.622 -207.56
337.057 1127.42 197.671
-363.044 -1217.81 -320.182
1.36148e-07 5.3895e-07 -7.7837e-09
-1.50927e-07 -6.8262e-07 -2.22334e-08
1.81569e-07 8.93134e-07 5.48243e-08
-2.32845e-07 -1.18132e-06 -8.88354e-08
3.01158e-07 1.56684e-06 1.31862e-07
-3.95444e-07 -2.07785e-06 -1.86755e-07
5.27596e-07 2.75877e-06 2.53224e-07
-6.96747e-07 -3.64838e-06 -3.43117e-07
9.26058e-07 4.8157e-06 4.58351e-07
-1.22744e-06 -6.34026e-06 -6.0794e-07
1.6172e-06 8.3178e-06 8.06696e-07
-2.13193e-06 -1.08856e-05 -1.06424e-06
2.79806e-06 1.42061e-05 1.40012e-06
-3.6622e-06 -1.8487e-05 -1.84014e-06
4.78374e-06 2.39998e-05 2.41027e-06
-6.22895e-06 -3.10794e-05 -3.15281e-06
8.09259e-06 4.01558e-05 4.11605e-06
-1.04941e-05 -5.17774e-05 -5.36129e-06
1.35747e-05 6.66284e-05 6.97403e-06
-1.75318e-05 -8.55882e-05 -9.05524e-06
2.26043e-05 0.000109762 1.17377e-05
-2.90891e-05 -0.000140539 -1.51982e-05
3.73898e-05 0.000179696 1.96462e-05
-4.79863e-05 -0.000229458 -2.53643e-05
6.15084e-05 0.000292636 3.27063e-05
-7.87514e-05 -0.00037278 -4.21166e-05
0.000100712 0.00047434 5.41699e-05
-0.000128655 -0.000602919 -6.95885e-05
0.000164181 0.000765545 8.92841e-05
-0.000209289 -0.000971012 -0.000114421
0.000266515 0.00123033 0.000146457
-0.000339021 -0.00155726 -0.000187241
0.000430788 0.00196894 0.0002391
-0.000546798 -0.00248677 -0.000304958
0.000693277 0.00313735 0.000388501
-0.000878016 -0.00395376 -0.000494348
0.00111074 0.0049771 0.000628292
-0.00140356 -0.00625837 -0.000797595
0.00177159 0.00786079 0.00101134
-0.00223364 -0.00986265 -0.00128087
0.00281309 0.0123608 0.00162036
-0.00353899 -0.015475 -0.00204748
0.00444737 0.019353 0.00258421
-0.00558289 -0.024177 -0.00325794
0.00700085 0.0301715 0.00410266
-0.00876961 -0.0376126 -0.0051606
0.0109736 0.0468398 0.00648408
-0.013717 -0.0582695 -0.00813792
0.0171282 0.0724127 0.0102023
-0.0213653 -0.0898952 -0.0127762
0.0266226 0.111483 0.015982
-0.033139 -0.138112 -0.0199703
0.0412076 0.170925 0.0249268
-0.0511878 -0.211318 -0.0310798
0.0635197 0.26099 0.03871
-0.0787419 -0.322011 -0.0481617
0.0975126 0.396898 0.0598575
-0.120635 -0.488709 -0.0743146
0.149091 0.601154 0.0921661
-0.184073 -0.738734 -0.114186
0.227035 0.9069 0.141319
-0.279746 -1.11225 -0.174718
0.344353 1.36274 0.215787
-0.423463 -1.66802 -0.266236
0.520235 2.0397 0.328143
-0.638497 -2.49177 -0.404034
0.782881 3.0411 0.496971
-0.958985 -3.70795 -0.610674
1.17357 4.51671 0.749636
-1.43479 -5.49662 -0.919309
1.75249 6.6828 1.12626
-2.13849 -8.11725 -1.37845
2.60708 9.85039 1.68543
-3.1753 -11.9423 -2.05883
3.86383 14.4652 2.51238
-4.69714 -17.5045 -3.06314
5.70515 21.1635 3.73061
-6.92264 -25.5628 -4.53999
8.39305 30.8503 5.51832
-10.1651 -37.1945 -6.70362
12.3026 44.8085 8.13153
-14.8719 -53.9226 -9.86204
17.969 64.8503 11.9363
-21.679 -77.8922 -14.4571
26.1537 93.5286 17.4531
-31.4866 -112.11 -21.1222
37.9382 134.431 25.4151
-45.5609 -160.769 -30.7686
54.858 192.599 36.8415
-65.6692 -229.666 -44.7203
79.0998 275.131 53.1118
-94.2448 -326.719 -64.9463
113.807 392.119 75.9927
-134.558 -462.483 -94.5112
163.596 558.226 107.453
-190.79 -650.322 -138.572
235.523 795.71 148.775
-267.696 -905.148 -206.818
341.143 1141.05 197.529
-368.926 -1237.42 -319.843
1.30417e-07 5.20639e-07 -7.04258e-09
-1.44392e-07 -6.57643e-07 -2.14635e-08
1.76366e-07 8.57619e-07 4.94868e-08
-2.23494e-07 -1.12432e-06 -8.15481e-08
2.85393e-07 1.48041e-06 1.20759e-07
-3.77491e-07 -1.95406e-06 -1.67594e-07
4.95608e-07 2.57417e-06 2.28972e-07
-6.52291e-07 -3.38543e-06 -3.07589e-07
8.6365e-07 4.44555e-06 4.08897e-07
-1.13362e-06 -5.8192e-06 -5.42834e-07
1.48869e-06 7.60032e-06 7.17622e-07
-1.95233e-06 -9.90444e-06 -9.45092e-07
2.55056e-06 1.28767e-05 1.24296e-06
-3.32833e-06 -1.67067e-05 -1.6302e-06
4.33292e-06 2.16315e-05 2.1353e-06
-5.62711e-06 -2.79563e-05 -2.79163e-06
7.30193e-06 3.6071e-05 3.6426e-06
-9.45443e-06 -4.64662e-05 -4.74692e-06
1.22233e-05 5.97718e-05 6.17582e-06
-1.57889e-05 -7.6785e-05 -8.02365e-06
2.0354e-05 9.85089e-05 1.04141e-05
-2.62171e-05 -0.000126233 -1.34956e-05
3.37294e-05 0.000161575 1.74688e-05
-4.33389e-05 -0.000206584 -2.25846e-05
5.56364e-05 0.000263854 2.91603e-05
-7.13433e-05 -0.000336643 -3.76077e-05
9.13821e-05 0.000429062 4.84438e-05
-0.000116937 -0.000546283 -6.23245e-05
0.000149469 0.000694785 8.00881e-05
-0.000190847 -0.000882704 -0.00010279
0.000243413 0.00112023 0.000131769
-0.000310108 -0.00142009 -0.000168716
0.000394633 0.00179823 0.000215764
-0.000501627 -0.0022745 -0.000275606
0.000636904 0.00287371 0.000351627
-0.000807749 -0.00362672 -0.000448086
0.00102327 0.00457196 0.000570332
-0.00129485 -0.00575722 -0.00072508
0.0016367 0.00724183 0.000920739
-0.00206652 -0.00909939 -0.00116784
0.00260638 0.0114211 0.00147955
-0.00328373 -0.0143199 -0.0018723
0.00413266 0.0179354 0.00236662
-0.0051955 -0.0224399 -0.00298805
0.00652472 0.0280462 0.0037684
-0.00818528 -0.0350161 -0.00474721
0.0102576 0.0436723 0.00597358
-0.0128409 -0.0544113 -0.00750842
0.016058 0.0677204 0.00942717
-0.0200599 -0.0841974 -0.0118232
0.025033 0.104575 0.014812
-0.0312065 -0.129751 -0.0185361
0.0388623 0.160823 0.0231714
-0.0483463 -0.199132 -0.0289345
0.0600833 0.246316 0.0360922
-0.0745933 -0.304372 -0.0449724
0.0925133 0.375733 0.0559779
-0.114622 -0.463359 -0.069603
0.141872 0.570851 0.0864533
-0.175424 -0.702579 -0.10727
0.216693 0.863848 0.132961
-0.267406 -1.06109 -0.164635
0.329661 1.30208 0.203642
-0.40601 -1.59625 -0.251634
0.499551 1.95498 0.310619
-0.614043 -2.39201 -0.383041
0.754044 2.92391 0.47187
-0.925069 -3.57067 -0.580717
1.1338 4.35632 0.713954
-1.38829 -5.30979 -0.876896
1.6983 6.46584 1.07595
-2.07554 -7.86614 -1.31891
2.53423 9.56082 1.61511
-3.09134 -11.6097 -1.97598
3.76748 14.0847 2.41501
-4.58711 -17.0713 -2.949
5.58016 20.6727 3.59716
-6.78151 -25.0101 -4.38441
8.23476 30.2318 5.33749
-9.98899 -36.5075 -6.49411
12.1084 44.052 7.88966
-14.6601 -53.0981 -9.58377
17.7409 63.9625 11.6176
-21.4376 -76.9509 -14.0933
25.9032 92.5491 17.0405
-31.2345 -111.118 -20.6559
37.694 133.459 24.8925
-45.3401 -159.87 -30.185
54.6782 191.836 36.1981
-65.5604 -229.139 -44.012
79.0916 274.945 52.3501
-94.3931 -327.061 -64.1221
114.157 393.147 75.1425
-135.213 -464.541 -93.6094
164.612 561.518 106.597
-192.37 -655.504 -137.679
237.703 802.935 148.096
-270.887 -915.751 -206.086
345.259 1154.78 197.396
-374.853 -1257.18 -319.501
1.21506e-07 4.89304e-07 -6.23487e-09
-1.37075e-07 -6.16816e-07 -1.87593e-08
1.65814e-07 7.99176e-07 4.37878e-08
-2.06406e-07 -1.04039e-06 -7.31995e-08
2.67541e-07 1.36404e-06 1.07052e-07
-3.47143e-07 -1.79018e-06 -1.48754e-07
4.54794e-07 2.3468e-06 2.03136e-07
-5.98516e-07 -3.0749e-06 -2.71401e-07
7.84493e-07 4.02063e-06 3.60837e-07
-1.02822e-06 -5.24471e-06 -4.79838e-07
1.34614e-06 6.83252e-06 6.32444e-07
-1.7589e-06 -8.88428e-06 -8.32874e-07
2.29521e-06 1.15304e-05 1.09546e-06
-2.98876e-06 -1.49426e-05 -1.43729e-06
3.88685e-06 1.93346e-05 1.88386e-06
-5.04982e-06 -2.49852e-05 -2.46401e-06
6.55012e-06 3.22475e-05 3.2174e-06
-8.4866e-06 -4.15667e-05 -4.19798e-06
1.09848e-05 5.35207e-05 5.46761e-06
-1.41964e-05 -6.88344e-05 -7.1142e-06
1.83333e-05 8.84349e-05 9.24602e-06
-2.36495e-05 -0.0001135 -1.19987e-05
3.04707e-05 0.000145512 1.55556e-05
-3.92241e-05 -0.000186361 -2.01408e-05
5.04344e-05 0.000238426 2.60445e-05
-6.47769e-05 -0.000304706 -3.36421e-05
8.31127e-05 0.000388991 4.33994e-05
-0.000106516 -0.000496045 -5.59183e-05
0.000136357 0.000631855 7.19626e-05
-0.000174359 -0.000803944 -9.24965e-05
0.000222695 0.00102175 0.000118747
-0.000284107 -0.00129709 -0.000152263
0.000362038 0.00164478 0.000195005
-0.000460821 -0.00208332 -0.000249448
0.000585895 0.00263586 0.000318713
-0.000744086 -0.00333127 -0.000406726
0.000943937 0.00420552 0.000518436
-0.00119615 -0.00530345 -0.000660056
0.0015141 0.00668079 0.000839385
-0.00191448 -0.00840681 -0.0010662
0.00241812 0.0105674 0.00135275
-0.00305096 -0.0132692 -0.00171435
0.00384529 0.0166441 0.00217013
-0.00484124 -0.0208552 -0.00274399
0.00608863 0.0261042 0.00346568
-0.00764926 -0.0326398 -0.00437228
0.00959974 0.040769 0.00550989
-0.0120348 -0.0508695 -0.00693577
0.0150718 0.0634065 0.00872101
-0.0188553 -0.0789514 -0.0109537
0.0235641 0.098206 0.0137429
-0.0294183 -0.122031 -0.0172236
0.036689 0.151481 0.0215625
-0.0457096 -0.187847 -0.0269653
0.0568898 0.232707 0.0336857
-0.0707326 -0.28799 -0.0420362
0.0878544 0.356047 0.0524009
-0.109011 -0.439748 -0.0652522
0.135125 0.542584 0.08117
-0.167329 -0.668804 -0.100865
0.207001 0.823573 0.125209
-0.255825 -1.01316 -0.155267
0.315854 1.24517 0.192343
-0.389584 -1.52882 -0.238029
0.480057 1.87527 0.294266
-0.590964 -2.29801 -0.363421
0.726792 2.81335 0.448374
-0.892976 -3.44095 -0.552635
1.09611 4.20456 0.680455
-1.34417 -5.13276 -0.837017
1.6468 6.25999 1.02857
-2.01566 -7.62758 -1.26275
2.46484 9.28534 1.54869
-3.01127 -11.2928 -1.89761
3.67549 13.7218 2.32276
-4.48193 -16.6575 -2.84069
5.46055 20.2035 3.47034
-6.64631 -24.481 -4.23633
8.08298 29.6392 5.16513
-9.81996 -35.8487 -6.29409
11.9218 43.3259 7.65839
-14.4565 -52.3062 -9.31729
17.5216 63.1092 11.3119
-21.2055 -76.0462 -13.744
25.6626 91.6078 16.6435
-30.9927 -110.165 -20.2066
37.4604 132.528 24.3883
-45.13 -159.013 -29.6209
54.5094 191.115 35.5754
-65.4625 -228.655 -43.3253
79.0945 274.802 51.6106
-94.5525 -327.445 -63.3205
114.517 394.217 74.3148
-135.88 -466.643 -92.7293
165.642 564.854 105.762
-193.964 -660.738 -136.803
239.902 810.222 147.434
-274.102 -926.435 -205.364
349.407 1168.61 197.273
-380.826 -1277.1 -319.156
1.12946e-07 4.50254e-07 -6.79917e-09
-1.255e-07 -5.64754e-07 -1.56689e-08
1.51981e-07 7.26649e-07 3.81626e-08
-1.8927e-07 -9.43236e-07 -6.3438e-08
2.42115e-07 1.23043e-06 9.35674e-08
-3.15115e-07 -1.60953e-06 -1.30205e-07
4.10845e-07 2.10531e-06 1.77278e-07
-5.38522e-07 -2.75164e-06 -2.3748e-07
7.046e-07 3.58872e-06 3.16766e-07
-9.19289e-07 -4.67429e-06 -4.21646e-07
1.20372e-06 6.08602e-06 5.55854e-07
-1.57303e-06 -7.91055e-06 -7.32556e-07
2.04917e-06 1.02666e-05 9.64413e-07
-2.67333e-06 -1.33128e-05 -1.26579e-06
3.47741e-06 1.72405e-05 1.66114e-06
-4.52237e-06 -2.23052e-05 -2.17509e-06
5.87656e-06 2.88279e-05 2.84428e-06
-7.62175e-06 -3.72143e-05 -3.71731e-06
9.88099e-06 4.79947e-05 4.84877e-06
-1.27954e-05 -6.18325e-05 -6.31819e-06
1.65497e-05 7.95756e-05 8.22376e-06
-2.13845e-05 -0.000102302 -1.06895e-05
2.75994e-05 0.000131374 1.38788e-05
-3.55831e-05 -0.000168526 -1.79965e-05
4.58247e-05 0.000215943 2.33066e-05
-5.89448e-05 -0.000276389 -3.01478e-05
7.57366e-05 0.000353355 3.89476e-05
-9.71985e-05 -0.000451237 -5.02542e-05
0.000124595 0.000575573 6.47655e-05
-0.000159532 -0.000733337 -8.33635e-05
0.000204029 0.000933284 0.000107173
-0.00026064 -0.00118641 -0.000137617
0.000332582 0.00150651 0.000176497
-0.000423904 -0.00191086 -0.000226093
0.000539704 0.00242108 0.000289281
-0.00068638 -0.00306419 -0.000369693
0.000871958 0.00387392 0.000471905
-0.00110651 -0.00489236 -0.000601673
0.00140262 0.00617189 0.000766238
-0.00177604 -0.00777773 -0.000974688
0.00224646 0.0097909 0.00123842
-0.0028384 -0.012312 -0.00157173
0.00358246 0.0154659 0.00199247
-0.00451673 -0.0194071 -0.00252298
0.00568856 0.0243269 0.00319115
-0.00715682 -0.0304618 -0.00403176
0.00899451 0.0381041 0.00508811
-0.0112922 -0.0476139 -0.00641413
0.0141619 0.0594356 0.00807679
-0.0177425 -0.0741157 -0.0101593
0.0222052 0.0923267 0.0127647
-0.0277617 -0.114895 -0.016021
0.0346729 0.142833 0.0200861
-0.0432601 -0.177385 -0.0251557
0.053919 0.220073 0.031471
-0.0671359 -0.272759 -0.0393298
0.083508 0.337718 0.0490991
-0.103768 -0.417732 -0.0612303
0.128814 0.516189 0.0762788
-0.159746 -0.637222 -0.0949266
0.197909 0.785859 0.118011
-0.244947 -0.968218 -0.146557
0.302865 1.19173 0.181821
-0.374113 -1.46542 -0.22534
0.461671 1.80021 0.278991
-0.569168 -2.20937 -0.345067
0.701019 2.70894 0.426363
-0.862584 -3.31829 -0.526286
1.06037 4.06087 0.648978
-1.30227 -4.96492 -0.799489
1.59785 6.06456 0.983923
-1.95866 -7.4008 -1.20974
2.39872 9.02313 1.4859
-2.93487 -10.9908 -1.82341
3.58761 13.3755 2.23529
-4.38134 -16.2623 -2.73784
5.34603 19.7547 3.34974
-6.51674 -23.9745 -4.0953
7.93739 29.0712 5.00072
-9.65768 -35.2166 -6.10302
11.7426 42.6287 7.43714
-14.2609 -51.5453 -9.06196
17.3108 62.2892 11.0186
-20.9824 -75.1765 -13.4082
25.4315 90.7033 16.2615
-30.7608 -109.251 -19.7735
37.237 131.637 23.9015
-44.9305 -158.196 -29.0754
54.3513 190.435 34.9725
-65.3756 -228.211 -42.6592
79.1083 274.699 50.8925
-94.7231 -327.87 -62.5405
114.89 395.328 73.5089
-136.559 -468.787 -91.87
166.685 568.236 104.948
-195.574 -666.024 -135.945
242.12 817.573 146.787
-277.343 -937.201 -204.652
353.589 1182.56 197.159
-386.848 -1297.17 -318.806
1.00748e-07 4.04037e-07 -6.67837e-09
-1.1452e-07 -5.0796e-07 -1.21023e-08
1.378e-07 6.50059e-07 3.22297e-08
-1.68872e-07 -8.41358e-07 -5.45619e-08
2.19757e-07 1.0982e-06 7.91233e-08
-2.82459e-07 -1.43164e-06 -1.12654e-07
3.66697e-07 1.87023e-06 1.53713e-07
-4.81712e-07 -2.44145e-06 -2.07206e-07
6.24086e-07 3.18114e-06 2.79436e-07
-8.1911e-07 -4.1495e-06 -3.69133e-07
1.07462e-06 5.405e-06 4.88702e-07
-1.39823e-06 -7.02969e-06 -6.46167e-07
1.83298e-06 9.14062e-06 8.49084e-07
-2.38927e-06 -1.18677e-05 -1.11765e-06
3.11439e-06 1.53964e-05 1.46741e-06
-4.06219e-06 -1.99556e-05 -1.92286e-06
5.2797e-06 2.58312e-05 2.52127e-06
-6.86557e-06 -3.34083e-05 -3.29683e-06
8.91745e-06 4.31596e-05 4.30759e-06
-1.1561e-05 -5.56924e-05 -5.62314e-06
1.49801e-05 7.17899e-05 7.32815e-06
-1.9385e-05 -9.24315e-05 -9.54151e-06
2.50529e-05 0.000118873 1.24059e-05
-3.23482e-05 -0.000152707 -1.61084e-05
4.17109e-05 0.000195939 2.08925e-05
-5.37263e-05 -0.000251126 -2.706e-05
6.91224e-05 0.000321486 3.50064e-05
-8.88209e-05 -0.000411083 -4.52331e-05
0.000114008 0.000525058 5.83735e-05
-0.000146166 -0.000669875 -7.52415e-05
0.000187182 0.000853681 9.6866e-05
-0.000239443 -0.00108672 -0.000124555
0.000305948 0.00138184 0.00015997
-0.000390496 -0.00175521 -0.000205208
0.000497862 0.00222702 0.000262929
-0.000634043 -0.00282259 -0.000336491
0.000806599 0.00357357 0.000430128
-0.00102499 -0.00451948 -0.000549184
0.0013011 0.00570961 0.000700384
-0.00164979 -0.00720542 -0.000892181
0.00208966 0.00908336 0.0011352
-0.00264395 -0.0114386 -0.00144277
0.00334169 0.0143892 0.00183159
-0.00421903 -0.0180817 -0.00232256
0.00532106 0.022698 0.00294183
-0.00670384 -0.028463 -0.00372206
0.00843705 0.035655 0.00470397
-0.0106072 -0.0446178 -0.00593833
0.0133216 0.055776 0.00748835
-0.0167133 -0.069653 -0.00943259
0.0209467 0.0868932 0.0118687
-0.0262253 -0.10829 -0.0149177
0.0328005 0.134818 0.0187298
-0.0409821 -0.167675 -0.0234907
0.0511524 0.20833 0.0294304
-0.0637819 -0.258582 -0.0368327
0.0794493 0.320635 0.046048
-0.0988658 -0.397183 -0.0575084
0.122905 0.491519 0.0717459
-0.152636 -0.607662 -0.089415
0.189373 0.750511 0.11132
-0.234719 -0.926036 -0.138449
0.290638 1.1415 0.172012
-0.359528 -1.40574 -0.213494
0.444315 1.72947 0.26471
-0.548566 -2.12572 -0.327883
0.676627 2.61027 0.405724
-0.833783 -3.20222 -0.501545
1.02646 3.92471 0.619377
-1.26247 -4.80567 -0.764145
1.55129 5.8789 0.941811
-1.90437 -7.18508 -1.15968
2.33566 8.77339 1.42651
-2.86193 -10.7028 -1.75312
3.50361 13.0448 2.15231
-4.2851 -15.8845 -2.64012
5.23635 19.3253 3.23498
-6.39252 -23.4893 -3.9609
7.79768 28.5266 4.84381
-9.50185 -34.6101 -5.92039
11.5704 41.9591 7.22535
-14.0728 -50.8142 -8.81718
17.1082 61.5009 10.737
-20.768 -74.3405 -13.0854
25.2095 89.8343 15.8936
-30.5384 -108.373 -19.3558
37.0237 130.784 23.4313
-44.7413 -157.419 -28.5478
54.2038 189.794 34.3885
-65.2994 -227.808 -42.013
79.1332 274.637 50.195
-94.9049 -328.336 -61.7814
115.274 396.481 72.7239
-137.25 -470.976 -91.0309
167.741 571.667 104.152
-197.2 -671.366 -135.103
244.358 824.991 146.156
-280.609 -948.056 -203.949
357.806 1196.62 197.054
-392.919 -1317.41 -318.452
9.02488e-08 3.57452e-07 -6.19098e-09
-1.01955e-07 -4.48107e-07 -1.12338e-08
1.1774e-07 5.73416e-07 2.89369e-08
-1.55067e-07 -7.46923e-07 -4.58282e-08
1.93682e-07 9.70044e-07 6.94349e-08
-2.48022e-07 -1.26462e-06 -9.89659e-08
3.28336e-07 1.65386e-06 1.34527e-07
-4.20961e-07 -2.15711e-06 -1.83638e-07
5.57966e-07 2.82222e-06 2.43229e-07
-7.33354e-07 -3.68553e-06 -3.23483e-07
9.51827e-07 4.80343e-06 4.31708e-07
-1.25521e-06 -6.26437e-06 -5.6882e-07
1.6382e-06 8.15608e-06 7.50903e-07
-2.14077e-06 -1.06098e-05 -9.8913e-07
2.8035e-06 1.37918e-05 1.29872e-06
-3.65036e-06 -1.79019e-05 -1.70675e-06
4.76377e-06 2.32168e-05 2.23678e-06
-6.20459e-06 -3.00743e-05 -2.92992e-06
8.06104e-06 3.8907e-05 3.83556e-06
-1.04755e-05 -5.028e-05 -5.01179e-06
1.35875e-05 6.48985e-05 6.54237e-06
-1.76018e-05 -8.3669e-05 -8.53024e-06
2.27855e-05 0.000107747 1.11058e-05
-2.9448e-05 -0.000138589 -1.44423e-05
3.80251e-05 0.000178058 1.87546e-05
-4.90407e-05 -0.000228504 -2.43251e-05
6.3168e-05 0.000292905 3.15125e-05
-8.12819e-05 -0.000375037 -4.07723e-05
0.000104463 0.000479663 5.26904e-05
-0.000134108 -0.000612798 -6.80078e-05
0.000171977 0.00078202 8.76743e-05
-0.000220284 -0.000996875 -0.000112893
0.000281859 0.00126938 0.00014519
-0.000360244 -0.0016146 -0.000186509
0.000459909 0.00205147 0.000239304
-0.00058652 -0.00260373 -0.000306679
0.000747155 0.00330108 0.000392569
-0.00095074 -0.00418068 -0.000501929
0.00120849 0.00528896 0.000641011
-0.00153444 -0.00668388 -0.000817691
0.00194621 0.00843768 0.00104187
-0.00246583 -0.0106404 -0.001326
0.00312083 0.0134038 0.0016857
-0.00394561 -0.0168673 -0.00214056
0.00498308 0.0212034 0.00271511
-0.00628668 -0.0266264 -0.00344003
0.00792298 0.0334015 0.00435365
-0.0099747 -0.0418573 -0.00550382
0.0125446 0.0523995 0.0069502
-0.0157603 -0.0655295 -0.00876707
0.0197798 0.0818657 0.0110469
-0.0247989 -0.10217 -0.0139044
0.0310596 0.127382 0.0174822
-0.0388613 -0.158654 -0.0219572
0.0485733 0.197404 0.0275481
-0.0606509 -0.245374 -0.034526
0.0756555 0.304696 0.0432257
-0.0942775 -0.377985 -0.0540606
0.117366 0.46844 0.0675407
-0.145964 -0.57997 -0.0842945
0.181351 0.717351 0.105095
-0.225095 -0.886412 -0.130894
0.279117 1.09425 0.16286
-0.345768 -1.34953 -0.202425
0.42792 1.66275 0.251348
-0.529079 -2.04672 -0.31178
0.653525 2.51696 0.386355
-0.806471 -3.09231 -0.478292
0.994269 3.79561 0.591517
-1.22463 -4.65448 -0.730832
1.50697 5.70241 0.902061
-1.85264 -6.97975 -1.11235
2.27551 8.5354 1.37028
-2.79226 -10.4281 -1.68648
3.4233 12.729 2.07353
-4.19297 -15.5232 -2.54721
5.13126 18.9142 3.12571
-6.27339 -23.0243 -3.83274
7.6636 28.0042 4.69397
-9.35218 -34.0278 -5.74573
11.4049 41.316 7.02251
-13.892 -50.1116 -8.5824
16.9134 60.7431 10.4664
-20.5619 -73.537 -12.7748
24.9964 88.9996 15.5392
-30.3254 -107.532 -18.9528
36.82 129.967 22.977
-44.5622 -156.68 -28.0372
54.0666 189.193 33.8225
-65.2338 -227.445 -41.3856
79.1689 274.616 49.5171
-95.0979 -328.843 -61.0422
115.669 397.677 71.9591
-137.955 -473.209 -90.2111
168.812 575.147 103.376
-198.843 -676.765 -134.278
246.617 832.479 145.54
-283.903 -959.001 -203.256
362.06 1210.81 196.958
-399.041 -1337.82 -318.093
7.86003e-08 3.12926e-07 -4.03247e-09
-8.45888e-08 -3.93028e-07 -1.07763e-08
1.12318e-07 5.09733e-07 2.22346e-08
-1.33425e-07 -6.54568e-07 -4.27163e-08
1.64843e-07 8.5176e-07 6.39072e-08
-2.25803e-07 -1.11906e-06 -8.59872e-08
2.82945e-07 1.45976e-06 1.21068e-07
-3.81246e-07 -1.91909e-06 -1.57808e-07
5.02503e-07 2.51035e-06 2.13543e-07
-6.43418e-07 -3.27606e-06 -2.89039e-07
8.60462e-07 4.2902e-06 3.7802e-07
-1.12189e-06 -5.59705e-06 -5.04543e-07
1.46726e-06 7.3016e-06 6.65171e-07
-1.93499e-06 -9.51949e-06 -8.73895e-07
2.51775e-06 1.23847e-05 1.15421e-06
-3.30169e-06 -1.61091e-05 -1.51205e-06
4.31133e-06 2.0917e-05 1.98768e-06
-5.60702e-06 -2.71245e-05 -2.61088e-06
7.31371e-06 3.51444e-05 3.41734e-06
-9.50283e-06 -4.5467e-05 -4.47646e-06
1.23393e-05 5.87596e-05 5.85134e-06
-1.60142e-05 -7.5853e-05 -7.63715e-06
2.07416e-05 9.77995e-05 9.95956e-06
-2.68514e-05 -0.000125961 -1.29648e-05
3.47144e-05 0.00016204 1.68609e-05
-4.48182e-05 -0.000208217 -2.19007e-05
5.78182e-05 0.000267263 2.84072e-05
-7.44845e-05 -0.000342664 -3.68074e-05
9.58604e-05 0.000438859 4.76265e-05
-0.000123237 -0.000561437 -6.15555e-05
0.000158232 0.000717451 7.94675e-05
-0.000202966 -0.000915828 -0.00010246
0.000260043 0.00116776 0.000131958
-0.000332786 -0.00148737 -0.000169746
0.000425446 0.00189241 0.000218087
-0.000543277 -0.00240512 -0.00027988
0.000692985 0.00305344 0.000358755
-0.000883004 -0.00387235 -0.000459322
0.00112388 0.00490561 0.000587406
-0.00142893 -0.00620795 -0.000750332
0.00181484 0.00784767 0.000957359
-0.00230246 -0.00990999 -0.00122012
0.00291802 0.0125011 0.00155324
-0.00369418 -0.0157531 -0.00197508
0.00467185 0.0198303 0.00250868
-0.00590206 -0.0249367 -0.00318287
0.00744834 0.0313256 0.00403379
-0.00938993 -0.0393106 -0.00510653
0.0118253 0.0492803 0.00645746
-0.0148769 -0.0617151 -0.00815685
0.0186967 0.0772088 0.0102923
-0.0234731 -0.096494 -0.0129727
0.0294395 0.120474 0.0163335
-0.036885 -0.150263 -0.0205431
0.0461666 0.187229 0.0258101
-0.0577255 -0.233056 -0.032393
0.072106 0.289811 0.0406122
-0.0899789 -0.360032 -0.0508634
0.11217 0.446828 0.0636358
-0.139696 -0.554003 -0.0795328
0.173806 0.686217 0.0992986
-0.216032 -0.849157 -0.123849
0.268254 1.04977 0.154312
-0.332777 -1.29654 -0.192073
0.412421 1.59977 0.238833
-0.510634 -1.97205 -0.296678
0.631632 2.42865 0.368163
-0.780555 -2.98816 -0.456422
0.963681 3.67311 0.565276
-1.18864 -4.51085 -0.69941
1.46476 5.53453 0.864513
-1.80331 -6.78421 -1.06758
2.21808 8.30848 1.31702
-2.72569 -10.1658 -1.62327
3.34648 12.4272 1.99868
-4.10476 -15.1776 -2.45881
5.03053 18.5205 3.02159
-6.15912 -22.5786 -3.71046
7.53487 27.503 4.55079
-9.20839 -33.4688 -5.57859
11.2459 40.6981 6.82812
-13.7182 -49.4362 -8.35708
16.726 60.0146 10.2064
-20.3639 -72.7647 -12.4759
24.7918 88.1979 15.1975
-30.1214 -106.725 -18.5638
36.6258 129.187 22.5379
-44.3929 -155.978 -27.5429
53.9397 188.631 33.274
-65.1788 -227.121 -40.7765
79.2155 274.635 48.8582
-95.3022 -329.391 -60.3223
116.077 398.916 71.2137
-138.672 -475.489 -89.4101
169.897 578.678 102.617
-200.504 -682.224 -133.468
248.896 840.04 144.939
-287.225 -970.042 -202.571
366.351 1225.12 196.871
-405.217 -1358.4 -317.73
6.71511e-08 2.78253e-07 -6.78195e-09
-8.91221e-08 -3.53183e-07 -4.65775e-09
9.05404e-08 4.41765e-07 2.48228e-08
-1.0807e-07 -5.74999e-07 -3.87972e-08
1.62806e-07 7.60174e-07 5.24965e-08
-1.85937e-07 -9.87107e-07 -7.89387e-08
2.63853e-07 1.30413e-06 1.02292e-07
-3.41542e-07 -1.70339e-06 -1.44569e-07
4.245e-07 2.22707e-06 1.96533e-07
-5.95023e-07 -2.93483e-06 -2.514e-07
7.6385e-07 3.83366e-06 3.39064e-07
-1.00277e-06 -5.01897e-06 -4.44533e-07
1.34288e-06 6.56551e-06 5.82841e-07
-1.73065e-06 -8.5559e-06 -7.75315e-07
2.29206e-06 1.11626e-05 1.015e-06
-2.99345e-06 -1.45217e-05 -1.34336e-06
3.88718e-06 1.88708e-05 1.77221e-06
-5.10229e-06 -2.45139e-05 -2.32326e-06
6.62714e-06 3.17808e-05 3.05738e-06
-8.62787e-06 -4.11726e-05 -4.00562e-06
1.12321e-05 5.32801e-05 5.24073e-06
-1.45723e-05 -6.88587e-05 -6.85324e-06
1.8921e-05 8.89072e-05 8.94092e-06
-2.45186e-05 -0.000114651 -1.16596e-05
3.17244e-05 0.000147684 1.51833e-05
-4.10408e-05 -0.000190035 -1.97413e-05
5.29896e-05 0.000244243 2.56455e-05
-6.837e-05 -0.000313581 -3.32661e-05
8.81139e-05 0.000402146 4.31068e-05
-0.000113392 -0.000515144 -5.57963e-05
0.000145817 0.00065919 7.21215e-05
-0.000187265 -0.000842565 -9.31267e-05
0.000240217 0.00107578 0.000120099
-0.000307867 -0.00137207 -0.000154687
0.00039406 0.00174802 0.000199023
-0.000503861 -0.0022246 -0.00025575
0.000643583 0.00282807 0.00032826
-0.000821101 -0.00359136 -0.000420849
0.0010465 0.00455581 0.000538919
-0.00133231 -0.00577309 -0.000689339
0.00169433 0.00730785 0.000880739
-0.00215247 -0.00924088 -0.00112399
0.00273152 0.0116729 0.00143282
-0.00346268 -0.0147295 -0.00182443
0.00438496 0.0185672 0.00232048
-0.00554697 -0.0233804 -0.00294813
0.00700962 0.0294108 0.00374138
-0.0088487 -0.0369585 -0.00474284
0.0111587 0.0463956 0.00600577
-0.0140571 -0.0581828 -0.00759668
0.0176902 0.0728903 0.00959862
-0.0222395 -0.0912232 -0.012115
0.0279302 0.114052 0.0152747
-0.0350414 -0.14245 -0.0192378
0.0439187 0.177742 0.0242035
-0.0549895 -0.221557 -0.0304187
0.0687821 0.275898 0.0381897
-0.0859484 -0.343229 -0.0478958
0.107292 0.426572 0.0600061
-0.133805 -0.529635 -0.0751007
0.166704 0.656959 0.0938955
-0.20749 -0.814103 -0.117274
0.258003 1.00786 0.146323
-0.320502 -1.24655 -0.182384
0.397759 1.54028 0.227102
-0.493163 -1.90142 -0.282502
0.610869 2.34503 0.351064
-0.755949 -2.8894 -0.435836
0.934603 3.55682 0.54054
-1.15439 -4.37432 -0.669749
1.42454 5.37476 0.82902
-1.75626 -6.59789 -1.0252
2.16325 8.09201 1.26653
-2.66205 -9.91533 -1.56326
3.27296 12.1386 1.92752
-4.02026 -14.8468 -2.37466
4.93396 18.1434 2.92234
-6.04946 -22.1512 -3.59371
7.41125 27.0221 4.4139
-9.07023 -32.9319 -5.41857
11.093 40.1043 6.64175
-13.551 -48.787 -8.14073
16.546 59.3142 9.95645
-20.1737 -72.0224 -12.188
24.5955 87.4281 14.8681
-29.9262 -105.952 -18.1882
36.4408 128.443 22.1133
-44.2332 -155.313 -27.0641
53.8227 188.106 32.742
-65.1342 -226.835 -40.1849
79.2729 274.694 48.2174
-95.5179 -329.981 -59.6209
116.496 400.198 70.487
-139.402 -477.815 -88.6271
170.997 582.261 101.877
-202.182 -687.744 -132.673
251.199 847.676 144.352
-290.576 -981.181 -201.894
370.681 1239.56 196.793
-411.447 -1379.17 -317.362
6.6693e-08 2.4823e-07 -7.73587e-09
-6.6358e-08 -3.0719e-07 -6.23513e-09
7.69505e-08 3.86625e-07 2.51655e-08
-1.12279e-07 -5.17531e-07 -2.98361e-08
1.28237e-07 6.7088e-07 4.88735e-08
-1.78665e-07 -8.80509e-07 -6.99659e-08
2.27708e-07 1.16112e-06 9.13797e-08
-2.8968e-07 -1.5124e-06 -1.34231e-07
4.04093e-07 1.99989e-06 1.70286e-07
-5.22097e-07 -2.62761e-06 -2.23048e-07
6.86781e-07 3.43638e-06 3.03313e-07
-9.21204e-07 -4.51655e-06 -3.89376e-07
1.19246e-06 5.89996e-06 5.19898e-07
-1.58232e-06 -7.71093e-06 -6.85828e-07
2.0701e-06 1.00644e-05 9.01762e-07
-2.69361e-06 -1.30977e-05 -1.20303e-06
3.54458e-06 1.7058e-05 1.57822e-06
-4.61352e-06 -2.21715e-05 -2.07892e-06
6.02106e-06 2.87842e-05 2.73814e-06
-7.85926e-06 -3.73458e-05 -3.5856e-06
1.02205e-05 4.83796e-05 4.70341e-06
-1.33022e-05 -6.26153e-05 -6.15374e-06
1.72783e-05 8.09494e-05 8.03947e-06
-2.24137e-05 -0.000104521 -1.05016e-05
2.90638e-05 0.000134823 1.36868e-05
-3.76188e-05 -0.000173706 -1.78234e-05
4.86534e-05 0.000223553 2.31841e-05
-6.28508e-05 -0.000287393 -3.0111e-05
8.10795e-05 0.000369032 3.90783e-05
-0.000104511 -0.000473357 -5.0642e-05
0.000134538 0.000606504 6.55479e-05
-0.000172999 -0.000776231 -8.47567e-05
0.000222243 0.000992403 0.000109438
-0.000285144 -0.00126738 -0.000141152
0.000365469 0.00161678 0.00018185
-0.000467928 -0.00206031 -0.000233982
0.000598423 0.00262267 0.000300726
-0.000764513 -0.00333497 -0.000386058
0.000975622 0.0042362 0.000495029
-0.00124367 -0.00537523 -0.000634053
0.00158371 0.00681333 0.000811177
-0.00201452 -0.00862708 -0.00103661
0.00255982 0.0109122 0.0013232
-0.0032493 -0.0137881 -0.00168711
0.0041201 0.0174039 0.00214871
-0.00521883 -0.0219451 -0.00273357
0.00660364 0.0276427 0.00347375
-0.00834719 -0.0347838 -0.00440953
0.0105402 0.0437248 0.00559123
-0.0132956 -0.0549081 -0.00708191
0.0167541 0.0688817 0.0089603
-0.0210907 -0.0863241 -0.0113247
0.0265227 0.108075 0.0142976
-0.03332 -0.13517 -0.0180318
0.0418171 0.16889 0.022717
-0.0524284 -0.210812 -0.0285894
0.0656666 0.26288 0.0359421
-0.0821658 -0.327486 -0.0451386
0.102709 0.407571 0.0566292
-0.128262 -0.506746 -0.0709715
0.160014 0.629443 0.0888548
-0.199434 -0.781093 -0.111131
0.248322 0.968349 0.138849
-0.308897 -1.19935 -0.173307
0.383878 1.48404 0.216097
-0.476604 -1.83458 -0.269185
0.591166 2.26577 0.334978
-0.73257 -2.79569 -0.416443
0.906945 3.44634 0.517207
-1.12177 -4.24447 -0.64173
1.3862 5.22262 0.795446
-1.71135 -6.42027 -0.985052
2.11086 7.8854 1.21864
-2.60119 -9.676 -1.50625
3.20258 11.8626 1.85984
-3.93929 -14.5301 -2.29449
4.84134 17.7819 2.82766
-5.94421 -21.7413 -3.48219
7.29252 26.5603 4.28295
-8.93747 -32.4162 -5.26528
10.946 39.5336 6.46297
-13.3903 -48.1629 -7.9329
16.3729 58.6409 9.71597
-19.9909 -71.3092 -11.9108
24.4073 86.6891 14.5504
-29.7395 -105.211 -17.8252
36.2648 127.732 21.7025
-44.083 -154.683 -26.6003
53.7157 187.618 32.2259
-65.0999 -226.589 -39.61
79.3411 274.792 47.5942
-95.7451 -330.613 -58.9374
116.928 401.524 69.7785
-140.146 -480.189 -87.8615
172.113 585.898 101.153
-203.879 -693.328 -131.893
253.524 855.391 143.778
-293.958 -992.423 -201.224
375.051 1254.13 196.724
-417.735 -1400.13 -316.99
5.70405e-08 2.16915e-07 -3.33663e-09
-5.97968e-08 -2.74752e-07 -9.14172e-09
7.2742e-08 3.52207e-07 1.77632e-08
-9.44624e-08 -4.57378e-07 -3.05686e-08
1.15915e-07 5.97844e-07 4.51086e-08
-1.53682e-07 -7.85282e-07 -6.22852e-08
2.06706e-07 1.03421e-06 8.3104e-08
-2.67487e-07 -1.36175e-06 -1.12845e-07
3.6216e-07 1.79781e-06 1.49452e-07
-4.68496e-07 -2.3564e-06 -1.9921e-07
6.25613e-07 3.09542e-06 2.63422e-07
-8.25318e-07 -4.06215e-06 -3.49055e-07
1.08366e-06 5.31491e-06 4.63264e-07
-1.42389e-06 -6.94642e-06 -6.14949e-07
1.86435e-06 9.07427e-06 8.13111e-07
-2.45116e-06 -1.18431e-05 -1.07097e-06
3.21017e-06 1.54327e-05 1.41366e-06
-4.19336e-06 -2.00865e-05 -1.86291e-06
5.48722e-06 2.61189e-05 2.44917e-06
-7.15521e-06 -3.39203e-05 -3.21947e-06
9.32912e-06 4.40061e-05 4.22369e-06
-1.21493e-05 -5.70236e-05 -5.53339e-06
1.58055e-05 7.38167e-05 7.24225e-06
-2.05334e-05 -9.5445e-05 -9.46594e-06
2.66511e-05 0.000123266 1.23587e-05
-3.4541e-05 -0.00015902 -1.61162e-05
4.4727e-05 0.000204912 2.09877e-05
-5.78461e-05 -0.000263756 -2.73017e-05
7.47275e-05 0.000339125 3.54699e-05
-9.64353e-05 -0.000435548 -4.60272e-05
0.000124303 0.00055878 5.96569e-05
-0.000160051 -0.000716098 -7.72277e-05
0.000205851 0.000916698 9.98539e-05
-0.000264459 -0.00117221 -0.000128957
0.000339396 0.00149734 0.00016635
-0.000435084 -0.00191059 -0.000214329
0.000557137 0.00243527 0.000275829
-0.000712663 -0.00310071 -0.000354564
0.000910615 0.00394378 0.000455252
-0.00116231 -0.00501077 -0.000583864
0.00148198 0.00635972 0.000747955
-0.00188756 -0.00806333 -0.000957078
0.00240158 0.0102126 0.00122329
-0.00305236 -0.0129213 -0.00156179
0.0038754 0.0163313 0.00199174
-0.00491523 -0.0206201 -0.00253722
0.00622754 0.0260082 0.00322854
-0.00788205 -0.0327707 -0.0041037
0.00996581 0.0412494 0.00521038
-0.0125875 -0.0518691 -0.00660832
0.0158825 0.0651567 0.00837227
-0.0200197 -0.0817658 -0.0105956
0.025209 0.102506 0.0133951
-0.0317112 -0.128378 -0.0169162
0.0398505 0.160621 0.0213402
-0.0500288 -0.200763 -0.0268928
0.0627441 0.25069 0.0338547
-0.0786131 -0.312726 -0.0425744
0.0983984 0.389732 0.0534845
-0.123042 -0.48523 -0.067121
0.153708 0.603543 0.0841479
-0.191829 -0.749983 -0.105387
0.239174 0.931061 0.131852
-0.297916 -1.15476 -0.164796
0.37073 1.43084 0.205766
-0.460899 -1.77127 -0.256665
0.572458 2.19062 0.319835
-0.710346 -2.70673 -0.398162
0.880623 3.34133 0.49518
-1.09069 -4.12089 -0.615244
1.34963 5.07767 0.763664
-1.66847 -6.25084 -0.946998
2.06078 7.68812 1.17318
-2.54295 -9.44722 -1.45206
3.13517 11.5985 1.79541
-3.86167 -14.2267 -2.21809
4.75249 17.4354 2.73729
-5.84316 -21.3479 -3.3756
7.17845 26.117 4.15763
-8.80986 -31.9207 -5.11837
10.8047 38.9851 6.29138
-13.2359 -47.5629 -7.73316
16.2065 57.9937 9.48453
-19.8154 -70.6239 -11.6435
24.2268 85.9801 14.2437
-29.5611 -104.502 -17.4745
36.0976 127.055 21.305
-43.9421 -154.089 -26.1507
53.6183 187.166 31.7251
-65.0758 -226.38 -39.0512
79.4202 274.93 46.9878
-95.9838 -331.286 -58.271
117.373 402.895 69.0873
-140.904 -482.612 -87.1128
173.245 589.591 100.446
-205.596 -698.978 -131.127
255.874 863.186 143.219
-297.373 -1003.77 -200.563
379.464 1268.85 196.663
-424.082 -1421.29 -316.612
4.70953e-08 1.96294e-07 -2.9358e-09
-5.57656e-08 -2.48179e-07 -5.46389e-09
6.88076e-08 3.16204e-07 1.5783e-08
-8.01855e-08 -4.07825e-07 -2.55206e-08
1.09683e-07 5.37062e-07 3.79767e-08
-1.42412e-07 -7.05191e-07 -5.24274e-08
1.82318e-07 9.26244e-07 7.41559e-08
-2.46474e-07 -1.22413e-06 -9.76168e-08
3.19879e-07 1.61235e-06 1.32474e-07
-4.30308e-07 -2.1197e-06 -1.76098e-07
5.64191e-07 2.78606e-06 2.33164e-07
-7.43898e-07 -3.65997e-06 -3.09859e-07
9.80967e-07 4.79249e-06 4.14205e-07
-1.28375e-06 -6.27077e-06 -5.521e-07
1.69598e-06 8.20618e-06 7.25386e-07
-2.22515e-06 -1.07195e-05 -9.58997e-07
2.9135e-06 1.39864e-05 1.26645e-06
-3.82477e-06 -1.82329e-05 -1.66779e-06
4.99719e-06 2.37342e-05 2.19826e-06
-6.53185e-06 -3.08641e-05 -2.89213e-06
8.52833e-06 4.00926e-05 3.79843e-06
-1.1118e-05 -5.20182e-05 -4.9849e-06
1.44782e-05 6.742e-05 6.53087e-06
-1.88365e-05 -8.72827e-05 -8.54904e-06
2.44698e-05 0.000112863 1.11765e-05
-3.17631e-05 -0.000145782 -1.45916e-05
4.11733e-05 0.000188089 1.90287e-05
-5.3316e-05 -0.000242407 -2.47828e-05
6.89662e-05 0.000312071 3.22388e-05
-8.91016e-05 -0.00040131 -4.18897e-05
0.000115 0.000515515 5.436e-05
-0.000148256 -0.000661492 -7.0461e-05
0.000190919 0.000847877 9.1222e-05
-0.000245589 -0.0010856 -0.000117961
0.000315566 0.00138849 0.000152357
-0.00040504 -0.00177397 -0.00019656
0.000519319 0.00226402 0.00025329
-0.000665115 -0.00288638 -0.000326016
0.000850933 0.00367592 0.00041914
-0.0010875 -0.00467648 -0.000538247
0.00138834 0.00594313 0.000690414
-0.00177054 -0.00754494 -0.000884597
0.00225555 0.00956846 0.00113212
-0.00287041 -0.0121221 -0.00144728
0.00364903 0.0153413 0.00184812
-0.00463402 -0.0193954 -0.00235736
0.00587877 0.0244956 0.00300359
-0.00745015 -0.0309054 -0.00382278
0.00943182 0.0389528 0.00486009
-0.0119283 -0.0490459 -0.00617217
0.0150702 0.0616918 0.00783
-0.0190204 -0.0775203 -0.00992244
0.0239816 0.0973127 0.0125606
-0.0302063 -0.122037 -0.0158833
0.0380087 0.152891 0.0200638
-0.0477786 -0.191356 -0.0253178
0.0600002 0.239264 0.0319144
-0.0752734 -0.298873 -0.0401877
0.0943416 0.372971 0.0505534
-0.118124 -0.464987 -0.0635274
0.147758 0.579147 0.0797491
-0.184647 -0.720642 -0.100011
0.230522 0.895852 0.125294
-0.287519 -1.1126 -0.156811
0.358266 1.38049 0.196058
-0.445996 -1.71126 -0.244885
0.554684 2.11931 0.305568
-0.689208 -2.62221 -0.380915
0.855558 3.24145 0.474371
-1.06107 -4.00322 -0.590189
1.31473 4.93949 0.73356
-1.62751 -6.08916 -0.910903
2.01289 7.49965 1.13
-2.48721 -9.22845 -1.40053
3.07059 11.3457 1.73406
-3.78725 -13.9361 -2.14522
4.66722 17.1031 2.65099
-5.74612 -20.9704 -3.27367
7.06886 25.6913 4.03761
-8.6872 -31.4446 -4.97748
10.6688 38.4579 6.12662
-13.0873 -46.986 -7.5411
16.0466 57.3715 9.26168
-19.647 -69.9657 -11.3858
24.0539 85.2999 13.9476
-29.3908 -103.824 -17.1353
35.939 126.41 20.9202
-43.8103 -153.528 -25.7149
53.5307 186.751 31.239
-65.062 -226.208 -38.5079
79.51 275.108 46.3977
-96.2341 -332 -57.6211
117.83 404.311 68.4131
-141.677 -485.085 -86.3803
174.393 593.34 99.7546
-207.332 -704.696 -130.375
258.248 871.066 142.672
-300.819 -1015.23 -199.908
383.92 1283.71 196.611
-430.489 -1442.65 -316.228
4.3802e-08 1.72702e-07 -3.81164e-09
-5.12169e-08 -2.18384e-07 -3.84368e-09
5.9178e-08 2.79551e-07 1.27557e-08
-7.69504e-08 -3.67268e-07 -2.11191e-08
9.80451e-08 4.80821e-07 3.0828e-08
-1.25137e-07 -6.29138e-07 -4.6813e-08
1.66704e-07 8.32583e-07 6.47584e-08
-2.19197e-07 -1.09826e-06 -8.77281e-08
2.91254e-07 1.44616e-06 1.17705e-07
-3.83601e-07 -1.90562e-06 -1.56744e-07
5.08348e-07 2.50886e-06 2.09501e-07
-6.74503e-07 -3.29888e-06 -2.76551e-07
8.85335e-07 4.32623e-06 3.68956e-07
-1.17062e-06 -5.67598e-06 -4.89647e-07
1.54039e-06 7.43359e-06 6.49061e-07
-2.02139e-06 -9.7181e-06 -8.59404e-07
2.65917e-06 1.27019e-05 1.1344e-06
-3.48608e-06 -1.65764e-05 -1.49604e-06
4.56468e-06 2.16043e-05 1.9753e-06
-5.97428e-06 -2.81324e-05 -2.60126e-06
7.80536e-06 3.65864e-05 3.42174e-06
-1.01885e-05 -4.75285e-05 -4.49621e-06
1.32843e-05 6.16704e-05 5.89974e-06
-1.7299e-05 -7.99299e-05 -7.73251e-06
2.25048e-05 0.000103486 1.01199e-05
-2.92424e-05 -0.000133834 -1.32305e-05
3.79564e-05 0.000172892 1.72732e-05
-4.92123e-05 -0.000223103 -2.25254e-05
6.37308e-05 0.000287576 2.93398e-05
-8.24458e-05 -0.000370279 -3.81674e-05
0.000106535 0.000476241 4.95944e-05
-0.000137509 -0.000611855 -6.4366e-05
0.000177296 0.000785239 8.34363e-05
-0.000228344 -0.00100667 -0.00010803
0.000293763 0.00128914 0.000139714
-0.000377519 -0.00164911 -0.000180476
0.000484627 0.00210734 0.000232861
-0.000621458 -0.00269004 -0.000300103
0.000796065 0.00343024 0.000386317
-0.00101864 -0.00436949 -0.000496733
0.00130206 0.00556009 0.00063798
-0.00166257 -0.00706769 -0.000818467
0.00212066 0.00897471 0.00104883
-0.00270212 -0.0113845 -0.00134254
0.0034394 0.0144264 0.00171658
-0.0043733 -0.0182622 -0.00219239
0.005555 0.0230943 0.00279702
-0.00704872 -0.0291752 -0.00356448
0.0089349 0.0368199 0.00453758
-0.0113142 -0.0464206 -0.00577007
0.0143125 0.0584657 0.00732941
-0.018087 -0.0735626 -0.00930017
0.0228338 0.0924655 0.0117883
-0.0287974 -0.11611 -0.0149261
0.0362822 0.145657 0.0188793
-0.0456669 -0.182543 -0.0238544
0.057422 0.228546 0.030109
-0.0721317 -0.285863 -0.0379642
0.0905206 0.357209 0.0478192
-0.113487 -0.445929 -0.0601705
0.142141 0.55615 0.0756347
-0.177858 -0.692951 -0.0949768
0.222335 0.86258 0.119145
-0.277669 -1.07272 -0.149312
0.346444 1.33279 0.18693
-0.431843 -1.65436 -0.233794
0.537787 2.05161 0.292117
-0.669091 -2.54188 -0.364633
0.831679 3.1464 0.454701
-1.03281 -3.89112 -0.566472
1.28141 4.80771 0.705025
-1.58837 -5.93479 -0.876645
1.96708 7.31953 1.08896
-2.43384 -9.01915 -1.35148
3.0087 11.1036 1.67559
-3.71587 -13.6575 -2.07569
4.58538 16.7843 2.56852
-5.65293 -20.608 -3.17614
6.96355 25.2823 3.92263
-8.56929 -30.987 -4.84232
10.5382 37.951 5.96833
-12.9446 -46.4314 -7.35634
15.893 56.7736 9.04702
-19.4853 -69.3337 -11.1373
23.8883 84.6478 13.6616
-29.2284 -103.176 -16.8073
35.7889 125.797 20.5474
-43.6874 -153.001 -25.2921
53.4525 186.37 30.7669
-65.0582 -226.074 -37.9795
79.6107 275.325 45.8231
-96.4961 -332.757 -56.9872
118.3 405.772 67.7551
-142.463 -487.609 -85.6635
175.559 597.148 99.079
-209.089 -710.485 -129.635
260.649 879.033 142.139
-304.301 -1026.8 -199.261
388.42 1298.72 196.567
-436.958 -1464.21 -315.84
3.82759e-08 1.50523e-07 -2.82552e-09
-4.38431e-08 -1.92303e-07 -4.04319e-09
5.2006e-08 2.49154e-07 1.18224e-08
-6.80454e-08 -3.26399e-07 -1.94939e-08
8.60478e-08 4.27517e-07 2.89733e-08
-1.12902e-07 -5.63284e-07 -4.1014e-08
1.50949e-07 7.47826e-07 5.64411e-08
-1.97971e-07 -9.88022e-07 -7.73934e-08
2.63474e-07 1.30377e-06 1.03622e-07
-3.4917e-07 -1.72008e-06 -1.38775e-07
4.6205e-07 2.26663e-06 1.84389e-07
-6.13211e-07 -2.98283e-06 -2.45362e-07
8.06481e-07 3.91755e-06 3.27284e-07
-1.06573e-06 -5.14425e-06 -4.3584e-07
1.40192e-06 6.74483e-06 5.79384e-07
-1.8452e-06 -8.83227e-06 -7.69328e-07
2.42669e-06 1.15537e-05 1.0169e-06
-3.18285e-06 -1.50922e-05 -1.34703e-06
4.17355e-06 1.9695e-05 1.77851e-06
-5.46815e-06 -2.56761e-05 -2.34467e-06
7.15303e-06 3.34313e-05 3.08889e-06
-9.34888e-06 -4.34794e-05 -4.06203e-06
1.22031e-05 5.64864e-05 5.33744e-06
-1.5912e-05 -7.33045e-05 -7.00155e-06
2.07257e-05 9.50239e-05 9.17557e-06
-2.69638e-05 -0.000123044 -1.2008e-05
3.50414e-05 0.000159148 1.56983e-05
-4.54841e-05 -0.000205616 -2.04975e-05
5.89752e-05 0.000265361 2.67314e-05
-7.63819e-05 -0.000342088 -3.48199e-05
9.8816e-05 0.00044052 4.53019e-05
-0.000127699 -0.000566664 -5.88685e-05
0.000164846 0.000728139 7.64073e-05
-0.000212559 -0.000934612 -9.90572e-05
0.000273792 0.00119835 0.000128267
-0.000352281 -0.00153488 -0.000165896
0.000452782 0.00196383 0.000214317
-0.000581329 -0.00250999 -0.000276551
0.000745571 0.00320464 0.00035645
-0.000955194 -0.00408725 -0.000458907
0.00122246 0.00520748 0.000590146
-0.00156284 -0.00662782 -0.000758062
0.00199591 0.00842679 0.000972661
-0.0025463 -0.010703 -0.00124662
0.00324507 0.01358 0.00159596
-0.00413131 -0.0172127 -0.00204094
0.00525413 0.0217948 0.00260712
-0.00667524 -0.0275687 -0.00332673
0.00847203 0.0348369 0.00424033
-0.0107415 -0.0439769 -0.00539899
0.013605 0.0554592 0.00686685
-0.0172145 -0.0698697 -0.00872444
0.0217596 0.087937 0.0110727
-0.0274772 -0.110567 -0.0140382
0.0346625 0.138883 0.0177791
-0.0436834 -0.174279 -0.0224933
0.0549975 0.218484 0.0284278
-0.0691738 -0.273635 -0.0358908
0.086919 0.342375 0.0452663
-0.10911 -0.427971 -0.0570323
0.136834 0.534455 0.0717833
-0.171436 -0.666796 -0.0902579
0.214583 0.831119 0.113373
-0.268332 -1.03496 -0.142265
0.335225 1.28758 0.178341
-0.418397 -1.60037 -0.223344
0.521715 1.98729 0.279426
-0.649936 -2.46547 -0.349251
0.808917 3.05591 0.436093
-1.00585 -3.78427 -0.544008
1.24958 4.68197 0.677961
-1.55094 -5.78735 -0.84411
1.92325 7.14731 1.04994
-2.38272 -8.81884 -1.30478
2.94938 10.8718 1.61983
-3.64739 -13.3904 -2.0093
4.50681 16.4785 2.48969
-5.5634 -20.2601 -3.08278
6.86234 24.8894 3.81241
-8.45594 -30.5472 -4.71259
10.4126 37.4637 5.81621
-12.8073 -45.8983 -7.17852
15.7455 56.199 8.84016
-19.3303 -68.7268 -10.8974
23.7299 84.0229 13.3853
-29.0737 -102.556 -16.4899
35.6469 125.215 20.1863
-43.5734 -152.507 -24.882
53.3837 186.025 30.3084
-65.0646 -225.977 -37.4654
79.7222 275.581 45.2636
-96.7699 -333.556 -56.3687
118.783 407.279 67.1128
-143.265 -490.184 -84.9619
176.741 601.015 98.4184
-210.868 -716.346 -128.909
263.076 887.09 141.618
-307.817 -1038.49 -198.62
392.967 1313.88 196.531
-443.493 -1485.99 -315.445
3.46051e-08 1.36348e-07 -2.55412e-09
-3.86784e-08 -1.72403e-07 -3.01258e-09
4.91973e-08 2.2334e-07 9.19641e-09
-6.04538e-08 -2.9216e-07 -1.59495e-08
7.97844e-08 3.85523e-07 2.32438e-08
-1.06312e-07 -5.09907e-07 -3.34672e-08
1.35616e-07 6.74674e-07 4.80698e-08
-1.83977e-07 -8.95234e-07 -6.49497e-08
2.41474e-07 1.18104e-06 8.90984e-08
-3.18358e-07 -1.55829e-06 -1.2049e-07
4.2482e-07 2.05463e-06 1.61486e-07
-5.55572e-07 -2.70221e-06 -2.18904e-07
7.36168e-07 3.55464e-06 2.92636e-07
-9.68954e-07 -4.66939e-06 -3.90972e-07
1.27748e-06 6.12872e-06 5.20785e-07
-1.68496e-06 -8.0351e-06 -6.91182e-07
2.21206e-06 1.05189e-05 9.18537e-07
-2.90932e-06 -1.37595e-05 -1.21428e-06
3.82197e-06 1.798e-05 1.60399e-06
-5.01009e-06 -2.34645e-05 -2.11749e-06
6.56563e-06 3.05894e-05 2.79065e-06
-8.58945e-06 -3.98336e-05 -3.67471e-06
1.12285e-05 5.1818e-05 4.83118e-06
-1.46596e-05 -6.73279e-05 -6.34679e-06
1.91149e-05 8.73806e-05 8.32684e-06
-2.48982e-05 -0.00011328 -1.09128e-05
3.23902e-05 0.00014669 1.42854e-05
-4.20926e-05 -0.000189747 -1.86764e-05
5.4641e-05 0.000245173 2.43875e-05
-7.08499e-05 -0.000316445 -3.18069e-05
9.17671e-05 0.000407994 4.14328e-05
-0.000118733 -0.000525458 -5.39068e-05
0.000153448 0.00067601 7.00548e-05
-0.000198105 -0.000868769 -9.09296e-05
0.00025548 0.0011153 0.000117887
-0.000329111 -0.00143026 -0.000152661
0.000423512 0.00183221 0.000197463
-0.000544397 -0.00234465 -0.000255122
0.000699042 0.00299724 0.000329241
-0.000896665 -0.00382745 -0.000424407
0.00114893 0.00488252 0.000546462
-0.00147063 -0.00622195 -0.000702824
0.00188041 0.00792062 0.000902914
-0.00240187 -0.0100726 -0.00115868
0.00306474 0.0127962 0.00148524
-0.00390648 -0.0162395 -0.00190174
0.00497428 0.0205884 0.00243237
-0.00632745 -0.0260755 -0.00310765
0.00804048 0.0329917 0.00396609
-0.0102069 -0.0417002 -0.0050562
0.0129438 0.0526547 0.00643901
-0.0163981 -0.0664207 -0.00819123
0.0207533 0.0837026 0.0104092
-0.026239 -0.105377 -0.0132138
0.0331418 0.132533 0.0167563
-0.0418189 -0.166524 -0.0212263
0.0527158 0.20903 0.0268608
-0.0663869 -0.262131 -0.0339558
0.0835218 0.328405 0.0428807
-0.104977 -0.411039 -0.054096
0.131817 0.513975 0.0681751
-0.165359 -0.642078 -0.0858314
0.207237 0.80135 0.107952
-0.259474 -0.999189 -0.135637
0.32457 1.2447 0.170252
-0.405614 -1.5491 -0.21349
0.50642 1.92615 0.267445
-0.631687 -2.39277 -0.334709
0.787211 2.9697 0.418479
-0.980115 -3.68237 -0.522716
1.21918 4.56194 0.652276
-1.51515 -5.64646 -0.813191
1.88128 6.98258 1.0128
-2.33374 -8.62707 -1.26029
2.89249 10.6495 1.56665
-3.58168 -13.1343 -1.94588
4.43137 16.185 2.41428
-5.47739 -19.926 -2.99336
6.76506 24.5119 3.7067
-8.34696 -30.1245 -4.58801
10.2919 36.9952 5.66993
-12.6755 -45.3858 -7.00731
15.6038 55.647 8.64072
-19.1817 -68.1445 -10.6659
23.5784 83.4244 13.1182
-28.9265 -101.966 -16.1827
35.5131 124.664 19.8364
-43.468 -152.046 -24.4839
53.3243 185.714 29.8629
-65.0809 -225.916 -36.965
79.8445 275.876 44.7186
-97.0556 -334.398 -55.7651
119.279 408.833 66.4858
-144.082 -492.813 -84.2749
177.942 604.944 97.7724
-212.669 -722.282 -128.195
265.53 895.24 141.109
-311.37 -1050.3 -197.986
397.562 1329.21 196.503
-450.094 -1508 -315.044
3.07417e-08 1.21508e-07 -2.33654e-09
-3.62919e-08 -1.54569e-07 -2.44691e-09
4.36958e-08 2.0055e-07 7.6666e-09
-5.59147e-08 -2.64233e-07 -1.35791e-08
7.44341e-08 3.49879e-07 2.01445e-08
-9.23237e-08 -4.59877e-07 -3.10633e-08
1.26031e-07 6.10682e-07 4.2236e-08
-1.66503e-07 -8.08572e-07 -5.76363e-08
2.17286e-07 1.06793e-06 7.9493e-08
-2.93898e-07 -1.41194e-06 -1.07109e-07
3.7845e-07 1.85809e-06 1.4769e-07
-5.06811e-07 -2.45129e-06 -1.9674e-07
6.67684e-07 3.2266e-06 2.64003e-07
-8.82138e-07 -4.244e-06 -3.51711e-07
1.16866e-06 5.5778e-06 4.6733e-07
-1.53424e-06 -7.31766e-06 -6.23233e-07
2.02685e-06 9.59632e-06 8.25148e-07
-2.66807e-06 -1.25683e-05 -1.09242e-06
3.50441e-06 1.64382e-05 1.44701e-06
-4.60284e-06 -2.14793e-05 -1.91217e-06
6.03478e-06 2.80355e-05 2.52379e-06
-7.90782e-06 -3.65535e-05 -3.32618e-06
1.0347e-05 4.76037e-05 4.37914e-06
-1.35229e-05 -6.19217e-05 -5.76051e-06
1.76519e-05 8.0456e-05 7.5691e-06
-2.30142e-05 -0.000104423 -9.93254e-06
2.99776e-05 0.000135382 1.30171e-05
-3.90017e-05 -0.000175328 -1.70389e-05
5.0687e-05 0.000226811 2.22766e-05
-6.57988e-05 -0.000293094 -2.9089e-05
8.53282e-05 0.000378339 3.79372e-05
-0.000110526 -0.000487848 -4.94201e-05
0.000143015 0.000628383 6.4299e-05
-0.000184853 -0.000808536 -8.35605e-05
0.000238664 0.00103922 0.000108468
-0.000307816 -0.0013343 -0.000140635
0.000396565 0.00171136 0.000182134
-0.000510365 -0.00219265 -0.000235605
0.000656122 0.00280635 0.000304425
-0.000842606 -0.00358805 -0.000392901
0.00108096 0.00458273 0.000506515
-0.00138527 -0.00584706 -0.000652253
0.00177338 0.0074525 0.000838986
-0.00226787 -0.00948899 -0.00107797
0.00289723 0.0120696 0.0013835
-0.00369741 -0.0153363 -0.00177367
0.00471373 0.0194675 0.00227138
-0.00600326 -0.0246864 -0.00290558
0.00763775 0.0312729 0.00371283
-0.00970739 -0.0395771 -0.00473924
0.0123254 0.0500363 0.00604291
-0.0156336 -0.0631967 -0.00769696
0.01981 0.0797397 0.00979336
-0.025077 -0.100514 -0.0124476
0.0317128 0.126576 0.0158046
-0.0400649 -0.159241 -0.0200459
0.0505669 0.200141 0.0253991
-0.0637593 -0.251302 -0.0321485
0.0803152 0.315238 0.0406498
-0.101072 -0.395062 -0.0513465
0.12707 0.494628 0.064792
-0.159603 -0.6187 -0.0816759
0.200273 0.773163 0.102856
-0.251067 -0.965283 -0.129399
0.314447 1.20402 0.162629
-0.393456 -1.5004 -0.204192
0.491857 1.86801 0.256125
-0.614294 -2.32355 -0.320953
0.766501 2.88754 0.401795
-0.955536 -3.58516 -0.502522
1.19011 4.4473 0.627884
-1.4809 -5.51177 -0.783793
1.84109 6.82496 0.977447
-2.2868 -8.44341 -1.21787
2.83792 10.4365 1.51588
-3.51861 -12.8886 -1.88527
4.35891 15.9032 2.34212
-5.39475 -19.605 -2.90767
6.67155 24.1491 3.60528
-8.2422 -29.7181 -4.46832
10.1758 36.5449 5.52921
-12.5487 -44.8933 -6.8424
15.4679 55.1167 8.44837
-19.0392 -67.5859 -10.4422
23.4337 82.8516 12.8599
-28.7866 -101.402 -15.8852
35.3872 124.142 19.4971
-43.3712 -151.616 -24.0974
53.2741 185.437 29.4299
-65.1072 -225.892 -36.4779
79.9777 276.211 44.1876
-97.3533 -335.282 -55.1758
119.789 410.435 65.8735
-144.915 -495.496 -83.6022
179.161 608.936 97.1406
-214.492 -728.295 -127.492
268.014 903.486 140.612
-314.961 -1062.24 -197.357
402.206 1344.7 196.484
-456.763 -1530.23 -314.638
2.74893e-08 1.08324e-07 -1.44988e-09
-3.11379e-08 -1.38486e-07 -3.26339e-09
3.86666e-08 1.80779e-07 8.00362e-09
-4.9756e-08 -2.37238e-07 -1.41471e-08
6.20098e-08 3.12307e-07 2.10402e-08
-8.45899e-08 -4.14187e-07 -2.92921e-08
1.12483e-07 5.51122e-07 3.92381e-08
-1.47622e-07 -7.2901e-07 -5.40047e-08
1.99674e-07 9.66193e-07 7.25562e-08
-2.57559e-07 -1.27418e-06 -1.00353e-07
3.46861e-07 1.68445e-06 1.34049e-07
-4.59802e-07 -2.22528e-06 -1.77297e-07
6.09054e-07 2.93395e-06 2.36664e-07
-8.10262e-07 -3.86556e-06 -3.14916e-07
1.06304e-06 5.08236e-06 4.20643e-07
-1.41217e-06 -6.6821e-06 -5.56953e-07
1.86022e-06 8.77055e-06 7.39906e-07
-2.44838e-06 -1.14965e-05 -9.83743e-07
3.22082e-06 1.50546e-05 1.30488e-06
-4.23292e-06 -1.96938e-05 -1.72775e-06
5.55787e-06 2.57331e-05 2.28447e-06
-7.28653e-06 -3.35852e-05 -3.01655e-06
9.54507e-06 4.37852e-05 3.97764e-06
-1.24849e-05 -5.70196e-05 -5.23894e-06
1.63175e-05 7.41731e-05 6.89159e-06
-2.13026e-05 -9.63834e-05 -9.05226e-06
2.7779e-05 0.000125106 1.18768e-05
-3.61821e-05 -0.000162209 -1.55645e-05
4.7077e-05 0.000210089 2.03712e-05
-6.11875e-05 -0.000271806 -2.66313e-05
7.94344e-05 0.000351272 3.47741e-05
-0.000103014 -0.000453484 -4.53534e-05
0.000133448 0.00058481 5.90801e-05
-0.000172679 -0.000753355 -7.6874e-05
0.00022321 0.000969446 9.99088e-05
-0.00028821 -0.0012462 -0.000129696
0.000371744 0.00160026 0.00016817
-0.00047898 -0.00205276 -0.000217802
0.000616488 0.00263045 0.000281765
-0.000792642 -0.00336721 -0.000364094
0.00101804 0.00430583 0.000469953
-0.00130617 -0.0055004 -0.00060591
0.00167409 0.00701914 0.000780325
-0.00214342 -0.00894804 -0.00100383
0.00274148 0.0113954 0.00128992
-0.00350279 -0.0144972 -0.00165572
0.00447093 0.0184248 0.00212293
-0.0057008 -0.0233928 -0.00271902
0.0072616 0.0296705 0.00347872
-0.00924034 -0.0375954 -0.00444588
0.0117464 0.0475894 0.00567584
-0.0149172 -0.0601805 -0.00723836
0.0189249 0.0760278 0.00922125
-0.0239854 -0.095954 -0.011735
0.030369 0.120984 0.0149182
-0.0384137 -0.152395 -0.0189453
0.0485417 0.191776 0.0240344
-0.0612802 -0.2411 -0.0304591
0.0772863 0.30282 0.0385617
-0.097379 -0.379977 -0.0487699
0.122577 0.476339 0.0616178
-0.154148 -0.596576 -0.0777719
0.193666 0.746459 0.0980625
-0.243083 -0.933125 -0.123524
0.304824 1.16538 0.155441
-0.381886 -1.45411 -0.195413
0.477985 1.81269 0.245422
-0.597709 -2.25762 -0.307931
0.746734 2.8092 0.385983
-0.932054 -3.49237 -0.483358
1.16231 4.33778 0.604707
-1.44812 -5.38297 -0.755822
1.8026 6.67409 0.943768
-2.24179 -8.26746 -1.17741
2.78557 10.2323 1.46739
-3.45806 -12.6528 -1.82731
4.28931 15.6327 2.27302
-5.31533 -19.2967 -2.82552
6.58167 23.8004 3.50793
-8.1415 -29.3275 -4.35328
10.0643 36.1119 5.39378
-12.427 -44.4199 -6.68348
15.3374 54.6076 8.26278
-18.9029 -67.0503 -10.2262
23.2956 82.3038 12.61
-28.6539 -100.866 -15.5971
35.269 123.649 19.1681
-43.2828 -151.217 -23.7221
53.233 185.193 29.0089
-65.1435 -225.904 -36.0036
80.1219 276.584 43.67
-97.6632 -336.209 -54.6003
120.313 412.084 65.2754
-145.764 -498.233 -82.9432
180.399 612.994 96.5226
-216.34 -734.387 -126.802
270.527 911.831 140.126
-318.591 -1074.31 -196.734
406.901 1360.36 196.473
-463.503 -1552.69 -314.225
2.44669e-08 9.81472e-08 -1.57889e-09
-2.90581e-08 -1.26686e-07 -3.30052e-09
3.48924e-08 1.64347e-07 7.20847e-09
-4.39939e-08 -2.15059e-07 -1.3321e-08
5.84014e-08 2.84835e-07 1.88125e-08
-7.69595e-08 -3.77393e-07 -2.60002e-08
1.01943e-07 5.00271e-07 3.53613e-08
-1.35054e-07 -6.60572e-07 -4.82952e-08
1.78119e-07 8.73977e-07 6.60593e-08
-2.37735e-07 -1.15828e-06 -8.90831e-08
3.17148e-07 1.53316e-06 1.18226e-07
-4.20508e-07 -2.02442e-06 -1.58524e-07
5.58717e-07 2.67367e-06 2.11394e-07
-7.36236e-07 -3.52194e-06 -2.83551e-07
9.79233e-07 4.63957e-06 3.77669e-07
-1.29313e-06 -6.10787e-06 -5.01549e-07
1.70657e-06 8.02397e-06 6.68798e-07
-2.24895e-06 -1.05301e-05 -8.89968e-07
2.96343e-06 1.38072e-05 1.18054e-06
-3.89857e-06 -1.80807e-05 -1.56519e-06
5.12037e-06 2.36473e-05 2.07307e-06
-6.72253e-06 -3.08979e-05 -2.74055e-06
8.81347e-06 4.03272e-05 3.61828e-06
-1.15454e-05 -5.25757e-05 -4.76946e-06
1.51061e-05 6.84741e-05 6.28032e-06
-1.97439e-05 -8.90818e-05 -8.25806e-06
2.57732e-05 0.000115758 1.08481e-05
-3.36102e-05 -0.000150263 -1.42325e-05
4.37806e-05 0.000194842 1.86492e-05
-5.69644e-05 -0.000252372 -2.44094e-05
7.4038e-05 0.000326536 3.19106e-05
-9.61228e-05 -0.000422039 -4.16681e-05
0.000124659 0.000544889 5.43458e-05
-0.000161492 -0.000702746 -7.07974e-05
0.000208984 0.000905377 9.21213e-05
-0.000270151 -0.0011652 -0.000119729
0.000348851 0.00149802 0.000155431
-0.000449996 -0.00192387 -0.000201548
0.000579852 0.00246821 0.000261049
-0.000746389 -0.00316325 -0.000337734
0.000959747 0.00404982 0.000436453
-0.0012328 -0.00517952 -0.000563392
0.00158189 0.00661755 0.000726441
-0.00202773 -0.00844617 -0.000935637
0.00259653 0.0107691 0.00120375
-0.00332147 -0.013717 -0.00154698
0.00424445 0.0174541 0.00198592
-0.00541838 -0.0221871 -0.00254662
0.00690996 0.0281753 0.0032621
-0.00880324 -0.035744 -0.00417411
0.011204 0.0453009 0.00533539
-0.0142451 -0.0573562 -0.00681248
0.0180937 0.0725483 0.00868931
-0.0229593 -0.0916744 -0.0110715
0.0291044 0.11573 0.0140921
-0.0368581 -0.145956 -0.0179181
0.0466316 0.183899 0.0227592
-0.0589394 -0.231482 -0.0288786
0.0744235 0.2911 0.0366058
-0.0938847 -0.365723 -0.0463534
0.118321 0.45904 0.0586371
-0.148976 -0.575625 -0.0741015
0.187394 0.721144 0.0935504
-0.235497 -0.902606 -0.117986
0.29567 1.12868 0.148658
-0.37087 -1.41008 -0.187118
0.464763 1.76002 0.235298
-0.581887 -2.19479 -0.295597
0.727859 2.73447 0.370986
-0.90961 -3.40377 -0.465161
1.13572 4.2331 0.582672
-1.41673 -5.25975 -0.729196
1.76571 6.52963 0.911667
-2.19864 -8.09884 -1.13879
2.73534 10.0365 1.42106
-3.39992 -12.4265 -1.77185
4.22245 15.3729 2.20683
-5.239 -19.0005 -2.74673
6.49528 23.4653 3.41443
-8.04469 -28.952 -4.24265
9.95709 35.6958 5.2634
-12.3102 -43.9651 -6.53028
15.2123 54.1188 8.08364
-18.7724 -66.537 -10.0174
23.1639 81.7803 12.3683
-28.5282 -100.357 -15.3178
35.1586 123.185 18.8489
-43.2028 -150.85 -23.3574
53.201 184.983 28.5994
-65.1897 -225.952 -35.5416
80.277 276.997 43.1655
-97.9854 -337.18 -54.0382
120.85 413.783 64.6912
-146.628 -501.028 -82.2975
181.657 617.117 95.918
-218.211 -740.562 -126.122
273.07 920.278 139.652
-322.261 -1086.51 -196.117
411.649 1376.19 196.469
-470.316 -1575.4 -313.805
2.21868e-08 8.96083e-08 -1.59668e-09
-2.60187e-08 -1.15039e-07 -2.20738e-09
3.28689e-08 1.50065e-07 6.39795e-09
-4.06104e-08 -1.96106e-07 -1.05574e-08
5.42616e-08 2.60463e-07 1.59209e-08
-7.09142e-08 -3.44722e-07 -2.19156e-08
9.34347e-08 4.53855e-07 3.14117e-08
-1.22925e-07 -5.99204e-07 -4.2482e-08
1.64226e-07 7.95086e-07 5.72104e-08
-2.18961e-07 -1.05491e-06 -7.72116e-08
2.91525e-07 1.39775e-06 1.04398e-07
-3.84966e-07 -1.84687e-06 -1.41155e-07
5.12036e-07 2.43976e-06 1.89062e-07
-6.77518e-07 -3.21808e-06 -2.54583e-07
8.97335e-07 4.24554e-06 3.40099e-07
-1.18747e-06 -5.59081e-06 -4.53444e-07
1.56636e-06 7.35016e-06 6.06838e-07
-2.06914e-06 -9.6597e-06 -8.05918e-07
2.72853e-06 1.26769e-05 1.07218e-06
-3.58862e-06 -1.66141e-05 -1.42363e-06
4.72431e-06 2.17569e-05 1.8853e-06
-6.20869e-06 -2.84617e-05 -2.49301e-06
8.15138e-06 3.71914e-05 3.29378e-06
-1.06911e-05 -4.85456e-05 -4.3466e-06
1.40021e-05 6.32959e-05 5.72784e-06
-1.83231e-05 -8.24369e-05 -7.54164e-06
2.39446e-05 0.000107245 9.91791e-06
-3.12595e-05 -0.000139372 -1.30276e-05
4.07632e-05 0.000180925 1.70916e-05
-5.30956e-05 -0.000234609 -2.23978e-05
6.90858e-05 0.000303897 2.93161e-05
-8.97927e-05 -0.000393227 -3.83256e-05
0.000116579 0.000508271 5.00451e-05
-0.000151195 -0.000656275 -6.52716e-05
0.000195876 0.000846481 8.50317e-05
-0.000253494 -0.00109067 -0.000110644
0.000327711 0.00140382 0.000143805
-0.000423204 -0.00180499 -0.000186693
0.000545947 0.00231838 0.000242093
-0.000703545 -0.00297471 -0.000313581
0.000905687 0.00381289 0.00040572
-0.00116469 -0.00488221 -0.000524343
0.0014962 0.00624502 0.000676897
-0.00192008 -0.0079801 -0.000872864
0.00246151 0.0101869 0.00112433
-0.00315237 -0.0129907 -0.00144664
0.00403301 0.0165496 0.00185933
-0.00515441 -0.0210624 -0.00238715
0.00658095 0.0267789 0.00306149
-0.00839383 -0.0340131 -0.00392212
0.0106954 0.0431587 0.00501932
-0.0136143 -0.0547096 -0.00641664
0.0173127 0.0692839 0.00819429
-0.021994 -0.087655 -0.0104534
0.0279135 0.11079 0.0133215
-0.0353915 -0.139895 -0.0169587
0.044829 0.176476 0.0215668
-0.0567279 -0.222409 -0.0273989
0.0717158 0.28003 0.0347724
-0.0905764 -0.352246 -0.0440854
0.114288 0.442666 0.0558363
-0.144069 -0.555774 -0.0706482
0.181438 0.697131 0.0893
-0.228285 -0.873627 -0.112764
0.286959 1.0938 0.142252
-0.360376 -1.36819 -0.179276
0.452156 1.70985 0.225714
-0.566787 -2.13488 -0.283907
0.709827 2.66315 0.356755
-0.888151 -3.31913 -0.447871
1.11027 4.133 0.561709
-1.38667 -5.14183 -0.703835
1.73035 6.39126 0.881054
-2.15724 -7.93721 -1.10193
2.68712 9.84861 1.37677
-3.34408 -12.2094 -1.71877
4.15821 15.1233 2.14339
-5.16565 -18.7158 -2.67112
6.41223 23.1432 3.32459
-7.95165 -28.5911 -4.13623
9.85411 35.2958 5.13781
-12.198 -43.5283 -6.38253
15.0923 53.6498 7.91067
-18.6476 -66.0454 -9.81549
23.0385 81.2804 12.1342
-28.4094 -99.8726 -15.0472
35.0556 122.748 18.5392
-43.131 -150.512 -23.0031
53.178 184.806 28.2011
-65.2459 -226.036 -35.0915
80.4431 277.45 42.6735
-98.3199 -338.195 -53.489
121.402 415.531 64.1202
-147.51 -503.879 -81.6647
182.935 621.309 95.3264
-220.107 -746.82 -125.453
275.645 928.831 139.189
-325.972 -1098.86 -195.505
416.451 1392.2 196.474
-477.204 -1598.36 -313.378
2.04505e-08 8.07021e-08 -1.26073e-09
-2.39091e-08 -1.02778e-07 -2.01267e-09
2.86221e-08 1.34249e-07 5.60328e-09
-3.74628e-08 -1.76806e-07 -9.44757e-09
4.861e-08 2.33505e-07 1.41052e-08
-6.32613e-08 -3.0853e-07 -2.03321e-08
8.41009e-08 4.0832e-07 2.86012e-08
-1.11728e-07 -5.43074e-07 -3.88497e-08
1.49255e-07 7.22348e-07 5.20899e-08
-1.99351e-07 -9.59025e-07 -7.05652e-08
2.63501e-07 1.27158e-06 9.54614e-08
-3.53127e-07 -1.68489e-06 -1.2801e-07
4.66925e-07 2.22775e-06 1.72314e-07
-6.20747e-07 -2.94462e-06 -2.30651e-07
8.23406e-07 3.88747e-06 3.07987e-07
-1.0887e-06 -5.12136e-06 -4.12707e-07
1.44189e-06 6.74276e-06 5.48915e-07
-1.90471e-06 -8.86981e-06 -7.31296e-07
2.51185e-06 1.1651e-05 9.73096e-07
-3.31508e-06 -1.52909e-05 -1.29253e-06
4.36595e-06 2.00481e-05 1.71195e-06
-5.74544e-06 -2.62556e-05 -2.268e-06
7.55133e-06 3.43471e-05 2.99939e-06
-9.91215e-06 -4.48834e-05 -3.96282e-06
1.29992e-05 5.85837e-05 5.23077e-06
-1.7023e-05 -7.63811e-05 -6.89519e-06
2.22721e-05 9.94801e-05 9.07934e-06
-2.91062e-05 -0.000129424 -1.19399e-05
3.79951e-05 0.000168197 1.56835e-05
-4.95461e-05 -0.000218349 -2.05757e-05
6.45362e-05 0.000283153 2.69621e-05
-8.39723e-05 -0.000366799 -3.52889e-05
0.000109144 0.000474649 4.61327e-05
-0.000141707 -0.00061356 -6.02382e-05
0.000183792 0.00079229 7.85647e-05
-0.000238118 -0.00102201 -0.000102348
0.000308173 0.00131694 0.000133179
-0.000398416 -0.00169522 -0.000173099
0.00051454 0.00217989 0.000224729
-0.000663816 -0.00280022 -0.000291429
0.0008555 0.00359338 0.0003775
-0.00110139 -0.00460646 -0.000488447
0.00141647 0.00589913 0.000631297
-0.00181982 -0.00754686 -0.000815021
0.00233562 0.00964504 0.00105106
-0.00299455 -0.0123141 -0.00135396
0.00383545 0.015706 0.00174226
-0.00490751 -0.0200122 -0.00223949
0.00627288 0.0254736 0.00287553
-0.00801005 -0.0323932 -0.00368826
0.0102181 0.0411519 0.00472564
-0.0130217 -0.0522274 -0.0060484
0.0165782 0.066219 0.00773323
-0.0210852 -0.083877 -0.00987703
0.0267911 0.106141 0.012602
-0.0340078 -0.134185 -0.016062
0.0431265 0.169475 0.0204509
-0.0546372 -0.213843 -0.0260124
0.0691534 0.269569 0.0330525
-0.0874423 -0.339495 -0.0419553
0.110463 0.427158 0.0532025
-0.139411 -0.536954 -0.067397
0.175779 0.674341 0.0852935
-0.221425 -0.846095 -0.107835
0.278665 1.06062 0.1362
-0.350375 -1.32831 -0.171857
0.440131 1.66204 0.216636
-0.552369 -2.07773 -0.272821
0.692596 2.59505 0.343242
-0.867626 -3.23825 -0.431434
1.08591 4.03727 0.541756
-1.35788 -5.02894 -0.679666
1.69646 6.2587 0.851844
-2.11753 -7.78224 -1.0667
2.64084 9.66834 1.3344
-3.29046 -12.0009 -1.66794
4.09648 14.8837 2.08256
-5.09515 -18.4423 -2.59853
6.33241 22.8336 3.23824
-7.86224 -28.2441 -4.03381
9.75519 34.9115 5.01679
-12.0903 -43.1087 -6.23998
14.9774 53.1999 7.74358
-18.5283 -65.5748 -9.62023
22.9193 80.8037 11.9076
-28.2974 -99.4138 -14.7848
34.9601 122.339 18.2385
-43.0673 -150.205 -22.6586
53.1639 184.661 27.8136
-65.312 -226.156 -34.6527
80.6202 277.942 42.1937
-98.667 -339.254 -52.9523
121.968 417.329 63.5622
-148.409 -506.789 -81.0444
184.233 625.571 94.7474
-222.029 -753.166 -124.795
278.252 937.493 138.737
-329.727 -1111.34 -194.898
421.308 1408.4 196.487
-484.168 -1621.58 -312.945
1.82781e-08 7.20042e-08 -1.35887e-09
-2.04214e-08 -9.17071e-08 -1.83255e-09
2.65972e-08 1.20187e-07 4.7019e-09
-3.31709e-08 -1.57815e-07 -8.58889e-09
4.23634e-08 2.08542e-07 1.34944e-08
-5.74315e-08 -2.77852e-07 -1.87635e-08
7.4668e-08 3.6948e-07 2.62749e-08
-1.01258e-07 -4.94115e-07 -3.57825e-08
1.35942e-07 6.57635e-07 4.7764e-08
-1.79694e-07 -8.73238e-07 -6.55486e-08
2.42268e-07 1.161e-06 8.69382e-08
-3.20932e-07 -1.53785e-06 -1.16801e-07
4.28626e-07 2.03698e-06 1.5639e-07
-5.68864e-07 -2.69479e-06 -2.09217e-07
7.55404e-07 3.55888e-06 2.79537e-07
-1.00411e-06 -4.69818e-06 -3.72205e-07
1.32684e-06 6.19321e-06 4.97634e-07
-1.75734e-06 -8.15476e-06 -6.62451e-07
2.32275e-06 1.07271e-05 8.8142e-07
-3.06577e-06 -1.40963e-05 -1.17181e-06
4.04285e-06 1.85015e-05 1.55631e-06
-5.32338e-06 -2.42547e-05 -2.06422e-06
7.00349e-06 3.17627e-05 2.73478e-06
-9.20211e-06 -4.15471e-05 -3.619e-06
1.20772e-05 5.42869e-05 4.78271e-06
-1.5835e-05 -7.0858e-05 -6.31266e-06
2.07388e-05 9.23874e-05 8.32116e-06
-2.71319e-05 -0.000120327 -1.09557e-05
3.54576e-05 0.000156547 1.44062e-05
-4.62851e-05 -0.000203452 -1.89219e-05
6.03551e-05 0.000264128 2.48233e-05
-7.86177e-05 -0.000342536 -3.25257e-05
0.000102294 0.000443747 4.25688e-05
-0.000132961 -0.000574256 -5.56476e-05
0.000172633 0.000742363 7.26612e-05
-0.000223903 -0.000958675 -9.47674e-05
0.000290093 0.00123672 0.000123457
-0.000375452 -0.00159376 -0.000160648
0.000485422 0.00205174 0.000208804
-0.000626936 -0.00263859 -0.000271092
0.000808865 0.00338982 0.000351564
-0.0010425 -0.00435047 -0.000455414
0.00134223 0.00557766 0.000589286
-0.00172636 -0.00714377 -0.000761667
0.00221815 0.00914037 0.000983392
-0.00284711 -0.0116832 -0.00126827
0.0036507 0.0149185 0.00163391
-0.00467637 -0.0190308 -0.00210267
0.00598416 0.0242524 0.00270301
-0.00765 -0.0308762 -0.00347103
0.00976981 0.0392704 0.00445254
-0.0124646 -0.0498977 -0.00570554
0.015887 0.0633391 0.00730346
-0.0202291 -0.0803234 -0.00933911
0.0257327 0.101763 0.0119297
-0.0327016 -0.128802 -0.0152231
0.0415176 0.16287 0.0194058
-0.0526593 -0.205751 -0.0247123
0.0667268 0.259676 0.0314378
-0.0844714 -0.327425 -0.0399532
0.106833 0.412463 0.050724
-0.134986 -0.5191 -0.0643339
0.170398 0.6527 0.0815143
-0.214897 -0.819925 -0.10318
0.270765 1.02905 0.130477
-0.340839 -1.29032 -0.164833
0.428654 1.61646 0.208032
-0.538597 -2.0232 -0.262301
0.676122 2.53001 0.330404
-0.847988 -3.16092 -0.415798
1.06259 3.94566 0.522754
-1.33028 -4.92083 -0.656621
1.66395 6.13165 0.823958
-2.07943 -7.63362 -1.03304
2.59641 9.49535 1.29385
-3.23895 -11.8006 -1.61923
4.03718 14.6534 2.02421
-5.02739 -18.1794 -2.52881
6.25569 22.5361 3.15521
-7.77632 -27.9107 -3.9352
9.6602 34.5422 4.90014
-11.987 -42.706 -6.10239
14.8674 52.7687 7.58212
-18.4146 -65.1248 -9.43131
22.806 80.3495 11.6881
-28.192 -98.9798 -14.5303
34.8719 121.958 17.9466
-43.0117 -149.927 -22.3237
53.1588 184.549 27.4363
-65.388 -226.311 -34.2251
80.8085 278.473 41.7257
-99.0269 -340.357 -52.4277
122.549 419.178 63.0168
-149.325 -509.76 -80.4361
185.552 629.904 94.1807
-223.978 -759.6 -124.147
280.892 946.267 138.296
-333.525 -1123.97 -194.295
426.223 1424.8 196.507
-491.212 -1645.05 -312.504
1.62362e-08 6.49891e-08 -1.60691e-09
-2.03876e-08 -8.33258e-08 -1.0031e-09
2.31463e-08 1.07683e-07 4.47831e-09
-2.92678e-08 -1.42294e-07 -7.96024e-09
4.00054e-08 1.90288e-07 1.1402e-08
-5.18161e-08 -2.54119e-07 -1.62077e-08
7.07963e-08 3.39225e-07 2.19965e-08
-9.45426e-08 -4.52282e-07 -3.02157e-08
1.24516e-07 6.01193e-07 4.22904e-08
-1.67237e-07 -7.99394e-07 -5.7272e-08
2.21749e-07 1.06133e-06 7.81485e-08
-2.95518e-07 -1.40828e-06 -1.04351e-07
3.94522e-07 1.86726e-06 1.39341e-07
-5.25144e-07 -2.47144e-06 -1.8703e-07
6.98451e-07 3.2685e-06 2.51128e-07
-9.22606e-07 -4.31657e-06 -3.37091e-07
1.22715e-06 5.69858e-06 4.4932e-07
-1.62494e-06 -7.51221e-06 -5.99753e-07
2.14778e-06 9.89167e-06 8.00247e-07
-2.83897e-06 -1.30107e-05 -1.06599e-06
3.74454e-06 1.70921e-05 1.41853e-06
-4.93787e-06 -2.24319e-05 -1.88295e-06
6.5014e-06 2.9405e-05 2.49826e-06
-8.55114e-06 -3.8505e-05 -3.30964e-06
1.12361e-05 5.03678e-05 4.37822e-06
-1.47476e-05 -6.5813e-05 -5.78482e-06
1.93356e-05 8.59023e-05 7.63347e-06
-2.53228e-05 -0.000112002 -1.00617e-05
3.31256e-05 0.000145875 1.32471e-05
-4.32876e-05 -0.000189788 -1.74189e-05
5.65079e-05 0.000246659 2.28768e-05
-7.36824e-05 -0.000320231 -3.00096e-05
9.59778e-05 0.000415306 3.93199e-05
-0.000124881 -0.00053804 -5.14598e-05
0.000162317 0.000696314 6.72691e-05
-0.000210751 -0.000900204 -8.78337e-05
0.000273347 0.00116259 0.000114553
-0.000354168 -0.00149989 -0.00014923
0.000458391 0.00193304 0.000194187
-0.000592674 -0.00248873 -0.0002524
0.000765493 0.00320087 0.000327699
-0.000987679 -0.00411259 -0.000424986
0.00127304 0.00527862 0.000550544
-0.00163916 -0.0067684 -0.000712409
0.00210842 0.00866989 0.000920852
-0.00270926 -0.0110944 -0.00118898
0.00347779 0.0141828 0.00153352
-0.00445981 -0.0181129 -0.00197576
0.00571338 0.0231091 0.0025428
-0.00731198 -0.0294543 -0.00326909
0.00934854 0.037505 0.00419835
-0.0119405 -0.0477094 -0.00538607
0.015236 0.0606313 0.00690252
-0.019422 -0.0769783 -0.0088367
0.0247338 0.0976387 0.0113011
-0.0314677 -0.123725 -0.0144378
0.0399962 0.156632 0.0184262
-0.0507872 -0.198102 -0.0234924
0.0644277 0.250315 0.0299209
-0.0816537 -0.315992 -0.0380701
0.103387 0.398528 0.0483901
-0.130782 -0.502154 -0.0614461
0.165279 0.632138 0.0779471
-0.208682 -0.795035 -0.0987818
0.263236 0.998992 0.125062
-0.331744 -1.25413 -0.15818
0.417698 1.57299 0.199872
-0.525438 -1.97114 -0.252312
0.660368 2.46785 0.3182
-0.829193 -3.08697 -0.400918
1.04024 3.85798 0.504647
-1.30383 -4.81728 -0.634635
1.63277 6.00986 0.797323
-2.04285 -7.49104 -1.00084
2.55374 9.3293 1.25504
-3.18947 -11.6084 -1.57254
3.98018 14.4322 1.96821
-4.96228 -17.9268 -2.46181
6.18197 22.2501 3.07532
-7.69379 -27.5902 -3.84022
9.56901 34.1875 4.78764
-11.888 -42.3195 -5.96956
14.7621 52.3554 7.42604
-18.3061 -64.6947 -9.24846
22.6987 79.9173 11.4753
-28.0931 -98.5699 -14.2833
34.7909 121.602 17.663
-42.9641 -149.678 -21.9979
53.1626 184.468 27.0691
-65.4739 -226.502 -33.808
81.0081 279.045 41.2689
-99.3995 -341.505 -51.9147
123.144 421.079 62.4834
-150.259 -512.791 -79.8395
186.893 634.312 93.6259
-225.954 -766.127 -123.508
283.567 955.156 137.865
-337.37 -1136.76 -193.697
431.197 1441.39 196.536
-498.338 -1668.8 -312.056
1.53123e-08 5.90833e-08 -1.58459e-09
-1.73454e-08 -7.51813e-08 -1.21173e-09
2.02126e-08 9.75275e-08 4.58444e-09
-2.86088e-08 -1.31218e-07 -6.3603e-09
3.5932e-08 1.73933e-07 1.02615e-08
-4.91831e-08 -2.33071e-07 -1.35557e-08
6.59993e-08 3.11345e-07 1.8663e-08
-8.58269e-08 -4.12912e-07 -2.7029e-08
1.15642e-07 5.50371e-07 3.67831e-08
-1.53025e-07 -7.31676e-07 -5.07662e-08
2.04303e-07 9.72665e-07 6.88287e-08
-2.75222e-07 -1.29352e-06 -9.15136e-08
3.65587e-07 1.71521e-06 1.23353e-07
-4.85724e-07 -2.27218e-06 -1.67048e-07
6.42807e-07 3.00629e-06 2.263e-07
-8.56657e-07 -3.97629e-06 -3.03317e-07
1.13594e-06 5.25302e-06 4.05612e-07
-1.50329e-06 -6.93042e-06 -5.44208e-07
1.99103e-06 9.13458e-06 7.26538e-07
-2.63101e-06 -1.20237e-05 -9.70607e-07
3.47504e-06 1.58123e-05 1.29304e-06
-4.58611e-06 -2.07718e-05 -1.71941e-06
6.04162e-06 2.72554e-05 2.28509e-06
-7.95685e-06 -3.57297e-05 -3.0299e-06
1.04651e-05 4.67854e-05 4.0135e-06
-1.37489e-05 -6.11977e-05 -5.30865e-06
1.80459e-05 7.99642e-05 7.01241e-06
-2.36564e-05 -0.00010437 -9.25414e-06
3.09803e-05 0.000136081 1.21957e-05
-4.05295e-05 -0.00017724 -1.60519e-05
5.29604e-05 0.000230599 2.11045e-05
-6.91335e-05 -0.000299703 -2.77145e-05
9.01431e-05 0.000389104 3.63542e-05
-0.000117416 -0.000504643 -4.76313e-05
0.000152775 0.000653804 6.23338e-05
-0.000198572 -0.00084617 -8.14816e-05
0.000257829 0.001094 0.000106387
-0.000334407 -0.00141294 -0.000138752
0.000433285 0.00182299 0.000180755
-0.00056081 -0.00234963 -0.000235207
0.000725114 0.00302531 0.000305722
-0.000936589 -0.00389133 -0.000396933
0.00120849 0.00500018 0.000514784
-0.00155774 -0.00641852 -0.000666891
0.00200586 0.0082309 0.000862992
-0.00258027 -0.0105445 -0.00111554
0.00331582 0.0134949 0.00144044
-0.00425676 -0.0172537 -0.00185795
0.00545922 0.0220377 0.00239391
-0.00699438 -0.0281206 -0.00308119
0.00895232 0.0358472 0.00396157
-0.011447 -0.0456524 -0.00508813
0.0146225 0.0580832 0.00652819
-0.0186606 -0.0738275 -0.00836709
0.0237905 0.0937492 0.0107128
-0.0303014 -0.118933 -0.0137021
0.0385567 0.150738 0.0175074
-0.049014 -0.190867 -0.0223468
0.062248 0.241452 0.0284948
-0.0789798 -0.305156 -0.0362977
0.100114 0.385308 0.0461908
-0.126784 -0.486061 -0.0587217
0.160409 0.612592 0.0745779
-0.202761 -0.771352 -0.0946223
0.256058 0.970368 0.119936
-0.323065 -1.21962 -0.151874
0.407233 1.53151 0.192129
-0.51286 -1.92142 -0.242822
0.645298 2.40845 0.306592
-0.811198 -3.01622 -0.386747
1.01884 3.77403 0.487385
-1.27847 -4.71806 -0.61365
1.60286 5.89308 0.771869
-2.00775 -7.35425 -0.97004
2.51276 9.16989 1.21785
-3.14193 -11.4237 -1.52776
3.92542 14.2196 1.91444
-4.8997 -17.6841 -2.39741
6.11113 21.9752 2.99844
-7.61453 -27.2823 -3.7487
9.48151 33.8469 4.67912
-11.7931 -41.9487 -5.84125
14.6615 51.9597 7.27511
-18.2027 -64.2841 -9.07142
22.5971 79.5067 11.2691
-28.0006 -98.1839 -14.0436
34.717 121.274 17.3875
-42.9244 -149.458 -21.681
53.1752 184.42 26.7114
-65.5698 -226.729 -33.4013
81.2189 279.656 40.8231
-99.7853 -342.7 -51.4131
123.755 423.033 61.9619
-151.212 -515.885 -79.2543
188.256 638.794 93.0828
-227.958 -772.748 -122.879
286.278 964.164 137.444
-341.261 -1149.7 -193.103
436.232 1458.18 196.572
-505.548 -1692.84 -311.6
1.53258e-08 5.43931e-08 -1.46435e-09
-1.34038e-08 -6.70098e-08 -1.62475e-09
2.22989e-08 9.19395e-08 2.63947e-09
-2.4985e-08 -1.20425e-07 -5.78212e-09
3.41829e-08 1.60797e-07 8.65339e-09
-4.56556e-08 -2.12854e-07 -1.23953e-08
5.75445e-08 2.81696e-07 1.70711e-08
-8.14094e-08 -3.7842e-07 -2.32921e-08
1.05791e-07 5.04258e-07 3.21345e-08
-1.43687e-07 -6.72805e-07 -4.28911e-08
1.92117e-07 8.95013e-07 5.86698e-08
-2.54156e-07 -1.18974e-06 -8.0684e-08
3.38445e-07 1.57766e-06 1.10541e-07
-4.47717e-07 -2.09125e-06 -1.50135e-07
5.99144e-07 2.77387e-06 2.01576e-07
-7.93467e-07 -3.6686e-06 -2.73111e-07
1.05089e-06 4.84799e-06 3.68089e-07
-1.39424e-06 -6.40077e-06 -4.93951e-07
1.84539e-06 8.44207e-06 6.6213e-07
-2.44094e-06 -1.11247e-05 -8.84824e-07
3.22857e-06 1.46438e-05 1.18122e-06
-4.25915e-06 -1.92548e-05 -1.57415e-06
5.62412e-06 2.5295e-05 2.09237e-06
-7.40965e-06 -3.31919e-05 -2.77886e-06
9.75633e-06 4.35104e-05 3.68383e-06
-1.28347e-05 -5.69747e-05 -4.87743e-06
1.68585e-05 7.452e-05 6.45032e-06
-2.21259e-05 -9.73682e-05 -8.51905e-06
2.90082e-05 0.000127089 1.12374e-05
-3.79869e-05 -0.000165703 -1.48063e-05
4.96922e-05 0.000215818 1.94877e-05
-6.49303e-05 -0.000280792 -2.56202e-05
8.47541e-05 0.000364943 3.36422e-05
-0.000110511 -0.000473814 -4.41276e-05
0.000143938 0.00061452 5.78142e-05
-0.000187284 -0.000796183 -7.56577e-05
0.00024342 0.00103048 9.88963e-05
-0.000316055 -0.00133234 -0.000129125
0.000409936 0.00172087 0.000168402
-0.000531148 -0.00222041 -0.000219378
0.000687491 0.00286205 0.000285464
-0.000888937 -0.00368536 -0.000371043
0.00114823 0.00474071 0.000481745
-0.00148164 -0.00609213 -0.000624787
0.00190991 0.00782095 0.000809415
-0.00245948 -0.0100304 -0.00104746
0.00316399 0.0128511 0.00135405
-0.00406622 -0.0164489 -0.00174849
0.00522049 0.0210331 0.00225542
-0.00669576 -0.0268685 -0.00290622
0.00857941 0.0342895 0.00374084
-0.0109821 -0.0437175 -0.00481007
0.0140439 0.0556839 0.00617844
-0.0179418 -0.0708575 -0.00792781
0.0228993 0.0900793 0.010162
-0.0291982 -0.114406 -0.0130123
0.0371939 0.145165 0.016645
-0.0473337 -0.18402 -0.0212703
0.0601804 0.233055 0.0271532
-0.076441 -0.294881 -0.0346283
0.0970036 0.37276 0.044117
-0.122982 -0.47077 -0.0561498
0.155771 0.594003 0.0713937
-0.197119 -0.748807 -0.0906867
0.249211 0.943094 0.11508
-0.31478 -1.18671 -0.145894
0.397235 1.49191 0.184778
-0.500832 -1.87392 -0.233802
0.630876 2.35164 0.295546
-0.793965 -2.94852 -0.373246
0.998326 3.69364 0.470918
-1.25416 -4.62296 -0.59361
1.57416 5.78109 0.747534
-1.97405 -7.22299 -0.940556
2.4734 9.01684 1.18222
-3.09626 -11.2463 -1.4848
3.8728 14.0154 1.86279
-4.83958 -17.4508 -2.33548
6.04308 21.7111 2.92442
-7.53842 -26.9866 -3.66047
9.39759 33.52 4.57438
-11.7023 -41.5932 -5.71728
14.5654 51.5811 7.12911
-18.1045 -63.8924 -8.89996
22.5011 79.1171 11.0692
-27.9144 -97.8212 -13.811
34.6501 120.97 17.1197
-42.8926 -149.267 -21.3725
53.1967 184.404 26.363
-65.6757 -226.991 -33.0044
81.4411 280.307 40.3879
-100.184 -343.94 -50.9224
124.382 425.04 61.4518
-152.183 -519.044 -78.6801
189.642 643.355 92.551
-229.99 -779.466 -122.26
289.025 973.295 137.034
-345.201 -1162.8 -192.513
441.33 1475.18 196.616
-512.844 -1717.15 -311.136
8.68412e-09 4.65654e-08 4.75438e-10
-1.81059e-08 -6.41331e-08 3.57747e-11
1.61013e-08 8.20519e-08 3.17944e-09
-2.42191e-08 -1.0998e-07 -5.26334e-09
3.1071e-08 1.46335e-07 7.56858e-09
-3.94917e-08 -1.93412e-07 -1.17537e-08
5.68553e-08 2.5827e-07 1.53448e-08
-7.11018e-08 -3.44841e-07 -2.13762e-08
9.96137e-08 4.62307e-07 2.93122e-08
-1.3067e-07 -6.15064e-07 -4.02472e-08
1.73058e-07 8.18458e-07 5.58486e-08
-2.33195e-07 -1.09084e-06 -7.47525e-08
3.09115e-07 1.44953e-06 1.02144e-07
-4.16041e-07 -1.92614e-06 -1.3713e-07
5.50037e-07 2.55355e-06 1.85663e-07
-7.30983e-07 -3.38103e-06 -2.50703e-07
9.73328e-07 4.47438e-06 3.36961e-07
-1.28862e-06 -5.91295e-06 -4.53159e-07
1.71021e-06 7.8088e-06 6.06669e-07
-2.266e-06 -1.03028e-05 -8.09891e-07
2.99794e-06 1.35759e-05 1.08137e-06
-3.96813e-06 -1.78735e-05 -1.44029e-06
5.23702e-06 2.35036e-05 1.91779e-06
-6.9118e-06 -3.08743e-05 -2.54913e-06
9.11018e-06 4.05139e-05 3.38167e-06
-1.1992e-05 -5.31035e-05 -4.48236e-06
1.57739e-05 6.95306e-05 5.93414e-06
-2.0721e-05 -9.09439e-05 -7.84537e-06
2.71927e-05 0.000118825 1.0362e-05
-3.56435e-05 -0.000155086 -1.36706e-05
4.66708e-05 0.000202201 1.8013e-05
-6.1049e-05 -0.000263352 -2.37074e-05
7.97653e-05 0.000342635 3.11655e-05
-0.000104112 -0.000445319 -4.09229e-05
0.000135747 0.000578177 5.36738e-05
-0.000176803 -0.00074989 -7.03166e-05
0.00023004 0.000971594 9.20156e-05
-0.000298989 -0.00125755 -0.000120272
0.000388205 0.001626 0.000157028
-0.000503517 -0.00210026 -0.000204786
0.000652408 0.00271009 0.000266768
-0.000844459 -0.00349345 -0.000347127
0.00109192 0.00449869 0.000451192
-0.00141046 -0.00578739 -0.000585809
0.00182008 0.0074378 0.000759762
-0.00234627 -0.00954935 -0.000984297
0.00302156 0.0122482 0.00127381
-0.00388729 -0.0156943 -0.00164671
0.00499609 0.0200903 0.0021265
-0.00641479 -0.0256924 -0.00274316
0.00822819 0.0328246 0.00353489
-0.0105438 -0.0418961 -0.00455034
0.013498 0.0534231 0.00585138
-0.0172629 -0.0680561 -0.00751657
0.0220566 0.0866143 0.00964566
-0.0281541 -0.110128 -0.0123651
0.0359028 0.139893 0.015835
-0.0457404 -0.177536 -0.020258
0.058218 0.225096 0.0258902
-0.0740293 -0.285131 -0.033055
0.0940459 0.360842 0.0421603
-0.119363 -0.456234 -0.0537204
0.151353 0.576315 0.0683824
-0.19174 -0.727335 -0.0869606
0.242679 0.917094 0.110478
-0.306867 -1.15531 -0.140219
0.38768 1.4541 0.177794
-0.489328 -1.82852 -0.225222
0.617071 2.29731 0.285027
-0.777459 -2.88371 -0.360376
0.978663 3.61662 0.455203
-1.23083 -4.5318 -0.574462
1.54662 5.67366 0.724255
-1.94169 -7.097 -0.912321
2.43561 8.86988 1.14806
-3.05239 -11.0759 -1.44357
3.82224 13.8192 1.81315
-4.78181 -17.2266 -2.2759
5.97773 21.4574 2.85312
-7.46538 -26.7025 -3.5754
9.31713 33.2062 4.47327
-11.6154 -41.2526 -5.59745
14.4737 51.2191 6.98784
-18.0112 -63.5193 -8.73384
22.4107 78.7482 10.8753
-27.8344 -97.4814 -13.585
34.5902 120.693 16.8594
-42.8686 -149.104 -21.0723
53.2269 184.42 26.0236
-65.7916 -227.289 -32.6172
81.6748 280.999 39.963
-100.597 -345.227 -50.4422
125.024 427.102 60.9527
-153.173 -522.267 -78.1165
191.051 647.994 92.0302
-232.053 -786.284 -121.649
291.809 982.552 136.633
-349.19 -1176.07 -191.927
446.492 1492.4 196.668
-520.229 -1741.77 -310.664
1.67558e-08 4.8065e-08 -3.77412e-09
-1.03528e-08 -5.59507e-08 -1.81517e-09
1.77687e-08 7.56579e-08 2.05929e-09
-2.16861e-08 -9.90569e-08 -4.50201e-09
2.73331e-08 1.32364e-07 6.18964e-09
-4.08546e-08 -1.78237e-07 -9.19587e-09
4.69354e-08 2.36245e-07 1.52159e-08
-6.86006e-08 -3.1733e-07 -1.99664e-08
8.71038e-08 4.20772e-07 2.92611e-08
-1.17215e-07 -5.63597e-07 -3.92759e-08
1.60634e-07 7.52822e-07 5.10814e-08
-2.12695e-07 -1.00153e-06 -6.96034e-08
2.87299e-07 1.33366e-06 9.3407e-08
-3.77979e-07 -1.7698e-06 -1.28433e-07
5.06119e-07 2.35006e-06 1.71168e-07
-6.77375e-07 -3.11774e-06 -2.30362e-07
8.95747e-07 4.1296e-06 3.10369e-07
-1.19607e-06 -5.47056e-06 -4.14882e-07
1.58776e-06 7.23498e-06 5.53939e-07
-2.10906e-06 -9.55527e-06 -7.39143e-07
2.79542e-06 1.26058e-05 9.88308e-07
-3.69449e-06 -1.66103e-05 -1.32038e-06
4.88793e-06 2.18665e-05 1.75769e-06
-6.45453e-06 -2.87533e-05 -2.33855e-06
8.51592e-06 3.77683e-05 3.10544e-06
-1.1226e-05 -4.95547e-05 -4.1205e-06
1.4772e-05 6.49479e-05 5.46303e-06
-1.94274e-05 -8.50359e-05 -7.23317e-06
2.55127e-05 0.000111213 9.56734e-06
-3.34766e-05 -0.000145304 -1.26346e-05
4.38835e-05 0.000189644 1.66655e-05
-5.74503e-05 -0.000247248 -2.196e-05
7.51479e-05 0.000322021 2.88975e-05
-9.81812e-05 -0.000418962 -3.79866e-05
0.000128142 0.000544522 4.98764e-05
-0.000167073 -0.00070698 -6.5412e-05
0.000217596 0.000916959 8.56892e-05
-0.000283111 -0.00118809 -0.000112122
0.000367964 0.00153781 0.000146546
-0.000477754 -0.00198844 -0.000191322
0.000619667 0.00256853 0.000249502
-0.000802899 -0.00331448 -0.000325015
0.00103926 0.00427278 0.000422912
-0.00134383 -0.00550263 -0.000549694
0.0017359 0.00707941 0.000713705
-0.0022401 -0.00909897 -0.000925645
0.00288783 0.0116831 0.00119923
-0.00371915 -0.0149864 -0.00155199
0.00478501 0.0192048 0.00200639
-0.00615023 -0.0245867 -0.00259107
0.00789719 0.0314461 0.00334259
-0.0101304 -0.0401804 -0.00430757
0.0129824 0.0512913 0.00554532
-0.0166212 -0.065412 -0.00713132
0.0212593 0.0833407 0.00916146
-0.0271655 -0.106083 -0.0117574
0.0346791 0.134903 0.0150736
-0.0442288 -0.171392 -0.0193054
0.0563546 0.217547 0.0247004
-0.071737 -0.275875 -0.0315712
0.0912323 0.349517 0.0403129
-0.115917 -0.442409 -0.0514241
0.147144 0.559477 0.0655329
-0.18661 -0.706876 -0.0834308
0.236443 0.892299 0.106113
-0.299309 -1.12534 -0.134831
0.378545 1.41798 0.171155
-0.478321 -1.78512 -0.217058
0.603853 2.24532 0.275007
-0.761643 -2.82166 -0.348101
0.959812 3.54282 0.440198
-1.20846 -4.4444 -0.556158
1.52019 5.5706 0.701978
-1.91063 -6.97607 -0.885268
2.3993 8.72875 1.11529
-3.01024 -10.9122 -1.40397
3.77366 13.6307 1.76544
-4.72632 -17.0112 -2.21855
5.91497 21.2136 2.78442
-7.39531 -26.4298 -3.49333
9.24003 32.9052 4.37561
-11.5322 -40.9263 -5.48159
14.3863 50.8732 6.85108
-17.9227 -63.1643 -8.57285
22.3258 78.3994 10.6872
-27.7606 -97.1642 -13.3655
34.5372 120.44 16.6063
-42.8524 -148.97 -20.7799
53.266 184.467 25.6928
-65.9176 -227.623 -32.2392
81.9201 281.732 39.548
-101.022 -346.561 -49.9723
125.683 429.22 60.4644
-154.183 -525.557 -77.5632
192.485 652.715 91.5202
-234.146 -793.204 -121.047
294.632 991.939 136.241
-353.231 -1189.51 -191.344
451.721 1509.84 196.727
-527.705 -1766.69 -310.184
2.78785e-09 3.63475e-08 2.55315e-09
-1.63333e-08 -5.51461e-08 2.65977e-09
1.68016e-08 6.92795e-08 1.3932e-09
-1.90802e-08 -9.2428e-08 -2.36387e-09
3.13875e-08 1.23016e-07 5.1889e-09
-2.79228e-08 -1.59463e-07 -1.09538e-08
4.90728e-08 2.1856e-07 1.29451e-08
-5.84881e-08 -2.8868e-07 -1.97629e-08
8.04074e-08 3.88408e-07 2.51554e-08
-1.14797e-07 -5.22709e-07 -3.17858e-08
1.46706e-07 6.92961e-07 4.57023e-08
-2.00176e-07 -9.22925e-07 -6.25372e-08
2.58916e-07 1.22553e-06 8.72847e-08
-3.52555e-07 -1.63502e-06 -1.1421e-07
4.74407e-07 2.17347e-06 1.54446e-07
-6.21743e-07 -2.88261e-06 -2.09858e-07
8.39455e-07 3.83005e-06 2.79085e-07
-1.11393e-06 -5.07562e-06 -3.7325e-07
1.48471e-06 6.7182e-06 5.0089e-07
-1.96675e-06 -8.87466e-06 -6.75279e-07
2.59913e-06 1.1716e-05 9.05898e-07
-3.45281e-06 -1.54596e-05 -1.20723e-06
4.56646e-06 2.03689e-05 1.61071e-06
-6.03695e-06 -2.68106e-05 -2.14456e-06
7.97524e-06 3.52491e-05 2.8546e-06
-1.05072e-05 -4.62885e-05 -3.79744e-06
1.38506e-05 6.07295e-05 5.04006e-06
-1.82219e-05 -7.95873e-05 -6.68242e-06
2.39626e-05 0.000104202 8.84203e-06
-3.14815e-05 -0.000136284 -1.16878e-05
4.1292e-05 0.000178046 1.54365e-05
-5.41306e-05 -0.000232373 -2.03561e-05
7.08638e-05 0.000302951 2.68197e-05
-9.26774e-05 -0.000394556 -3.52925e-05
0.000121084 0.000513331 4.63872e-05
-0.000158021 -0.00066717 -6.09016e-05
0.000206026 0.000866227 7.98612e-05
-0.000268323 -0.00112352 -0.00010461
0.000349093 0.00145574 0.000136875
-0.000453715 -0.00188429 -0.000178891
0.000589071 0.00243652 0.000233545
-0.000764049 -0.00314745 -0.000304552
0.000989976 0.00406171 0.000396717
-0.00128141 -0.00523632 -0.000516207
0.00165697 0.00674391 0.000670951
-0.00214043 -0.00867694 -0.000871138
0.0027622 0.0111531 0.00112983
-0.00356103 -0.0143217 -0.00146377
0.00458632 0.0183726 0.00189439
-0.00590098 -0.0235465 -0.0024491
0.00758501 0.030148 0.00316291
-0.0097401 -0.0385632 -0.00408046
0.0124953 0.04928 0.00525871
-0.0160143 -0.0629149 -0.00677015
0.0205046 0.080246 0.00870702
-0.0262287 -0.102254 -0.0111865
0.0335187 0.130176 0.0143574
-0.042794 -0.165567 -0.0184085
0.0545843 0.210384 0.0235788
-0.0695574 -0.267083 -0.0301709
0.0885546 0.338751 0.0385676
-0.112635 -0.429254 -0.0492523
0.143131 0.54344 0.0628349
-0.181715 -0.687374 -0.0800849
0.230488 0.868644 0.101971
-0.292085 -1.09673 -0.129712
0.369808 1.38346 0.164841
-0.467787 -1.74361 -0.209285
0.591194 2.19556 0.265455
-0.746486 -2.76222 -0.336388
0.941735 3.4721 0.425864
-1.18699 -4.36058 -0.538653
1.49482 5.4717 0.680648
-1.88079 -6.85997 -0.859338
2.36443 8.5932 1.08384
-2.96975 -10.755 -1.36593
3.727 13.4495 1.71954
-4.67303 -16.8043 -2.16333
5.85474 20.9795 2.7182
-7.3281 -26.1681 -3.41413
9.16621 32.6167 4.28127
-11.4528 -40.6141 -5.36952
14.3031 50.5431 6.71866
-17.839 -62.827 -8.41677
22.2462 78.0705 10.5046
-27.6928 -96.8692 -13.1522
34.4911 120.213 16.36
-42.8439 -148.863 -20.4952
53.3139 184.545 25.3703
-66.0537 -227.992 -31.8701
82.1772 282.506 39.1426
-101.462 -347.943 -49.5123
126.357 431.394 59.9866
-155.213 -528.916 -77.0199
193.943 657.52 91.0206
-236.27 -800.23 -120.453
297.496 1001.46 135.859
-357.325 -1203.13 -190.764
457.018 1527.5 196.794
-535.276 -1791.92 -309.694
2.3158e-08 4.72441e-08 -9.37038e-09
-1.14002e-08 -4.72668e-08 -7.69803e-10
1.22003e-08 6.13765e-08 2.53173e-09
-2.00239e-08 -8.43094e-08 -3.36379e-09
1.81943e-08 1.06573e-07 9.32396e-09
-2.97941e-08 -1.46673e-07 -1.03035e-08
4.33481e-08 1.99513e-07 1.17809e-08
-5.24473e-08 -2.64691e-07 -1.7852e-08
8.3441e-08 3.63509e-07 1.77174e-08
-1.01123e-07 -4.76473e-07 -3.11657e-08
1.34645e-07 6.35754e-07 4.28897e-08
-1.79969e-07 -8.50208e-07 -5.73795e-08
2.45886e-07 1.13477e-06 7.74042e-08
-3.30916e-07 -1.5139e-06 -1.029e-07
4.31247e-07 2.00901e-06 1.42951e-07
-5.87775e-07 -2.67936e-06 -1.86154e-07
7.8531e-07 3.55862e-06 2.49329e-07
-1.04002e-06 -4.71036e-06 -3.42167e-07
1.37681e-06 6.23498e-06 4.62107e-07
-1.82532e-06 -8.24811e-06 -6.21555e-07
2.43498e-06 1.091e-05 8.2651e-07
-3.22757e-06 -1.44048e-05 -1.10453e-06
4.27053e-06 1.89943e-05 1.47834e-06
-5.65309e-06 -2.50233e-05 -1.97288e-06
7.45737e-06 3.29201e-05 2.63672e-06
-9.85e-06 -4.32812e-05 -3.50588e-06
1.29913e-05 5.68452e-05 4.65339e-06
-1.7122e-05 -7.45796e-05 -6.17125e-06
2.25412e-05 9.77438e-05 8.17407e-06
-2.96207e-05 -0.000127952 -1.0825e-05
3.89094e-05 0.000167337 1.43062e-05
-5.10444e-05 -0.00021861 -1.88896e-05
6.68853e-05 0.000285291 2.49162e-05
-8.75722e-05 -0.00037194 -3.28164e-05
0.000114517 0.000484395 4.31791e-05
-0.000149613 -0.000630209 -5.67437e-05
0.000195248 0.000819067 7.44928e-05
-0.00025453 -0.00106343 -9.76867e-05
0.000331486 0.0013793 0.000127949
-0.000431251 -0.00178718 -0.000167405
0.000560484 0.00231335 0.000218777
-0.000727687 -0.00299141 -0.000285603
0.000943806 0.00386435 0.000372435
-0.00122289 -0.00498707 -0.000485123
0.00158289 0.0064296 0.000631222
-0.00204682 -0.0082812 -0.00082043
0.00264408 0.0106555 0.00106521
-0.00341222 -0.0136972 -0.00138154
0.00439916 0.01759 0.00178989
-0.00566597 -0.0225672 -0.0023165
0.00729041 0.0289248 0.00299488
-0.00937144 -0.0370378 -0.00386786
0.0120348 0.0473811 0.00499012
-0.0154401 -0.0605551 -0.00643132
0.0197898 0.0773188 0.00828021
-0.0253407 -0.09863 -0.0106497
0.0324176 0.125697 0.0136834
-0.0414314 -0.160042 -0.0175634
0.0529016 0.203583 0.0225208
-0.0674838 -0.258729 -0.0288487
0.0860051 0.328511 0.0369177
-0.109507 -0.416731 -0.047197
0.139303 0.52816 0.0602789
-0.177043 -0.668777 -0.0769116
0.2248 0.846067 0.098038
-0.28518 -1.0694 -0.124847
0.361449 1.35047 0.158833
-0.457702 -1.7039 -0.20188
0.579068 2.14793 0.256346
-0.731958 -2.70528 -0.325205
0.924398 3.40429 0.412163
-1.16639 -4.28018 -0.521903
1.47046 5.3768 0.660217
-1.85215 -6.7485 -0.834472
2.33093 8.46303 1.05365
-2.93085 -10.6039 -1.32937
3.68218 13.2755 1.67539
-4.62186 -16.6055 -2.11014
5.79694 20.7547 2.65434
-7.26369 -25.9169 -3.33767
9.09557 32.3402 4.19009
-11.377 -40.3155 -5.26109
14.224 50.2284 6.5904
-17.76 -62.5071 -8.26542
22.1719 77.7611 10.3274
-27.631 -96.5961 -12.9449
34.4517 120.01 16.1205
-42.8431 -148.784 -20.2178
53.3706 184.655 25.0558
-66.2 -228.398 -31.5097
82.446 283.322 38.7465
-101.916 -349.374 -49.062
127.049 433.625 59.5189
-156.263 -532.344 -76.4864
195.426 662.41 90.5313
-238.427 -807.365 -119.867
300.4 1011.12 135.486
-361.474 -1216.93 -190.187
462.386 1545.41 196.869
-542.943 -1817.47 -309.196
-1.02904e-08 1.717e-08 1.28468e-08
-5.98071e-09 -4.02947e-08 -2.96142e-09
8.17651e-09 5.24942e-08 6.41666e-09
-1.47339e-08 -7.10214e-08 -7.77159e-09
1.22049e-08 9.81598e-08 7.57908e-09
-4.11817e-08 -1.4191e-07 -5.55736e-09
2.83722e-08 1.81964e-07 1.17744e-08
-6.55405e-08 -2.53804e-07 -9.57486e-09
6.62057e-08 3.24721e-07 2.31222e-08
-8.59989e-08 -4.35925e-07 -2.98074e-08
1.32684e-07 5.91461e-07 3.52256e-08
-1.70301e-07 -7.897e-07 -4.9244e-08
2.32485e-07 1.05596e-06 6.71307e-08
-3.00038e-07 -1.40082e-06 -9.49153e-08
4.12294e-07 1.87404e-06 1.20945e-07
-5.58634e-07 -2.49218e-06 -1.65505e-07
7.18949e-07 3.29374e-06 2.35746e-07
-9.60527e-07 -4.3705e-06 -3.17895e-07
1.28318e-06 5.80031e-06 4.22654e-07
-1.71814e-06 -7.69105e-06 -5.60529e-07
2.28053e-06 1.01689e-05 7.564e-07
-3.00989e-06 -1.34281e-05 -1.02015e-06
3.99719e-06 1.77242e-05 1.36577e-06
-5.27836e-06 -2.33644e-05 -1.82941e-06
6.9899e-06 3.07879e-05 2.4321e-06
-9.25229e-06 -4.05273e-05 -3.23004e-06
1.22136e-05 5.32786e-05 4.29223e-06
-1.61088e-05 -6.99615e-05 -5.70331e-06
2.12045e-05 9.1765e-05 7.57428e-06
-2.79078e-05 -0.000120257 -1.00313e-05
3.6697e-05 0.000157425 1.32749e-05
-4.81658e-05 -0.000205859 -1.75479e-05
6.32116e-05 0.000268937 2.31566e-05
-8.2819e-05 -0.00035096 -3.05374e-05
0.000108423 0.000457537 4.02174e-05
-0.000141778 -0.000595849 -5.2918e-05
0.000185185 0.00077518 6.95495e-05
-0.000241672 -0.00100748 -9.12908e-05
0.000315041 0.00130805 0.000119701
-0.000410266 -0.00169658 -0.000156775
0.000533729 0.0021983 0.000205108
-0.000693625 -0.00284554 -0.000268044
0.000900541 0.00367969 0.000349892
-0.00116799 -0.00475363 -0.000456243
0.00151334 0.00613493 0.000594275
-0.00195884 -0.0079098 -0.000773233
0.00253294 0.0101882 0.001005
-0.0032721 -0.01311 -0.00130483
0.00422275 0.0168534 0.00169231
-0.00544425 -0.0216447 -0.00219254
0.00701224 0.0277714 0.00283764
-0.00902301 -0.0355982 -0.0036687
0.0115991 0.0455872 0.00473822
-0.0148963 -0.0583238 -0.00611321
0.0191124 0.0745483 0.0078791
-0.0244984 -0.0951964 -0.0101447
0.0313723 0.12145 0.0130485
-0.0401368 -0.154799 -0.0167665
0.0513015 0.197123 0.0215222
-0.0655103 -0.250787 -0.0275993
0.0835765 0.318767 0.0353571
-0.106526 -0.404804 -0.0452508
0.135652 0.513595 0.0578559
-0.172582 -0.651035 -0.0739002
0.219365 0.824512 0.0943018
-0.278577 -1.04328 -0.12022
0.353451 1.31892 0.153114
-0.448046 -1.6659 -0.194823
0.567449 2.10231 0.247655
-0.718029 -2.65072 -0.314524
0.907769 3.33928 0.399063
-1.14663 -4.20305 -0.50587
1.44708 5.2857 0.640637
-1.82464 -6.64148 -0.810616
2.29876 8.338 1.02466
-2.8935 -10.4588 -1.29421
3.63915 13.1083 1.63289
-4.57274 -16.4146 -2.05889
5.7415 20.5389 2.59273
-7.20199 -25.6761 -3.26383
9.02803 32.0754 4.10194
-11.3048 -40.0302 -5.15614
14.1489 49.9287 6.46612
-17.6855 -62.2041 -8.1186
22.1028 77.4709 10.1553
-27.5751 -96.3446 -12.7434
34.419 119.831 15.8874
-42.85 -148.733 -19.9474
53.4361 184.797 24.7492
-66.3565 -228.839 -31.1577
82.7268 284.179 38.3594
-102.384 -350.853 -48.6209
127.758 435.915 59.061
-157.334 -535.844 -75.9623
196.936 667.388 90.0518
-240.617 -814.612 -119.289
303.346 1020.92 135.123
-365.678 -1230.92 -189.613
467.826 1563.55 196.952
-550.71 -1843.36 -308.689
3.51033e-08 4.99008e-08 -1.5967e-08
-3.1866e-10 -2.85837e-08 -1.08665e-08
1.24543e-08 5.29893e-08 1.39206e-09
-7.99551e-09 -6.34339e-08 -8.49189e-09
2.95638e-08 9.91277e-08 1.80766e-09
-1.90568e-08 -1.26044e-07 -6.95155e-09
4.6424e-08 1.74472e-07 7.36367e-09
-4.43573e-08 -2.26636e-07 -1.24464e-08
5.7268e-08 2.95384e-07 2.41858e-08
-9.57163e-08 -4.12053e-07 -2.08231e-08
1.19195e-07 5.46681e-07 3.28453e-08
-1.55798e-07 -7.25795e-07 -5.01956e-08
2.06321e-07 9.77147e-07 6.1027e-08
-2.96409e-07 -1.31283e-06 -7.60331e-08
3.93299e-07 1.73932e-06 1.113e-07
-4.87076e-07 -2.28706e-06 -1.70903e-07
6.63102e-07 3.05401e-06 2.21053e-07
-9.09866e-07 -4.08304e-06 -2.77644e-07
1.21799e-06 5.41565e-06 3.76736e-07
-1.60157e-06 -7.16125e-06 -5.19331e-07
2.11137e-06 9.46744e-06 7.08118e-07
-2.81536e-06 -1.25265e-05 -9.46397e-07
3.72952e-06 1.65527e-05 1.26521e-06
-4.95574e-06 -2.18607e-05 -1.68146e-06
6.58216e-06 2.88471e-05 2.22814e-06
-8.70127e-06 -3.7991e-05 -2.97609e-06
1.1483e-05 4.99694e-05 3.97759e-06
-1.51399e-05 -6.56726e-05 -5.29467e-06
1.99757e-05 8.62445e-05 7.0222e-06
-2.63281e-05 -0.000113143 -9.30145e-06
3.46247e-05 0.000148244 1.23295e-05
-4.5532e-05 -0.000194061 -1.63043e-05
5.9778e-05 0.000253766 2.15392e-05
-7.84137e-05 -0.000331484 -2.84389e-05
0.000102733 0.000432556 3.75047e-05
-0.00013445 -0.000563867 -4.94043e-05
0.000175819 0.000734324 6.49822e-05
-0.00022966 -0.00095533 -8.53806e-05
0.000299671 0.00124158 0.000112073
-0.000390625 -0.00161197 -0.000146941
0.000508665 0.00209076 0.00019244
-0.000661727 -0.00270908 -0.000251741
0.000859957 0.00350676 0.000328958
-0.00111643 -0.00453479 -0.000429403
0.00144796 0.00585844 0.000559901
-0.00187606 -0.00756101 -0.000729269
0.00242833 0.00974885 0.000948843
-0.00314005 -0.0125575 -0.00123322
0.00405637 0.0161597 0.00160112
-0.00523496 -0.0207752 -0.00207657
0.0067494 0.0266832 0.00269037
-0.00869352 -0.0342386 -0.00348197
0.0111868 0.0438915 0.00450182
-0.0143812 -0.0562127 -0.00581436
0.0184702 0.0719246 0.00750187
-0.0236991 -0.091942 -0.00966926
0.0303794 0.117421 0.0124502
-0.0389061 -0.14982 -0.0160147
0.0497791 0.190983 0.0205791
-0.0636312 -0.243232 -0.0264181
0.0812622 0.30949 0.03388
-0.103682 -0.39344 -0.0434068
0.132166 0.499707 0.0555577
-0.168321 -0.634104 -0.0710409
0.21417 0.803925 0.0907506
-0.272261 -1.01832 -0.115817
0.345796 1.28874 0.147665
-0.438797 -1.62952 -0.188093
0.556314 2.05862 0.239359
-0.704674 -2.59843 -0.304316
0.891816 3.27694 0.38653
-1.12765 -4.12904 -0.490514
1.42463 5.19827 0.621866
-1.79822 -6.53871 -0.78772
2.26787 8.21792 0.9968
-2.85762 -10.3194 -1.2604
3.59783 12.9478 1.59196
-4.52561 -16.2314 -2.00949
5.68836 20.3319 2.53329
-7.14291 -25.4452 -3.1925
8.9635 31.822 4.01669
-11.236 -39.7578 -5.05454
14.0778 49.6437 6.34567
-17.6155 -61.9177 -7.97614
22.0387 77.1994 9.98808
-27.525 -96.1144 -12.5474
34.393 119.677 15.6605
-42.8646 -148.709 -19.684
53.5105 184.97 24.45
-66.5233 -229.317 -30.8137
83.0198 285.078 37.981
-102.866 -352.383 -48.1889
128.484 438.265 58.6127
-158.427 -539.416 -75.4472
198.472 672.456 89.5821
-242.841 -821.973 -118.718
306.336 1030.86 134.768
-369.941 -1245.09 -189.042
473.341 1581.94 197.043
-558.579 -1869.59 -308.172
-4.99213e-08 -1.51412e-08 3.16858e-08
-1.76722e-08 -4.33897e-08 8.5133e-09
8.8251e-09 4.66094e-08 5.69686e-09
-1.53109e-08 -6.85224e-08 -1.27206e-09
1.77952e-08 8.78393e-08 5.26865e-09
-2.65292e-08 -1.15694e-07 -4.78386e-09
3.07263e-08 1.50473e-07 1.12193e-08
-3.95234e-08 -2.04143e-07 -1.31808e-08
6.6911e-08 2.86418e-07 1.40115e-08
-8.49209e-08 -3.80855e-07 -2.38731e-08
9.58195e-08 4.97157e-07 3.97431e-08
-1.43549e-07 -6.8096e-07 -4.09351e-08
2.19356e-07 9.20381e-07 4.62554e-08
-2.65381e-07 -1.19946e-06 -8.46395e-08
3.16506e-07 1.57713e-06 1.29711e-07
-4.60047e-07 -2.13794e-06 -1.47806e-07
6.60841e-07 2.8754e-06 1.74982e-07
-8.60605e-07 -3.80312e-06 -2.56237e-07
1.10307e-06 5.01507e-06 3.70349e-07
-1.46978e-06 -6.65206e-06 -4.97723e-07
1.98077e-06 8.83873e-06 6.51977e-07
-2.6398e-06 -1.17129e-05 -8.6584e-07
3.51775e-06 1.55123e-05 1.14852e-06
-4.68115e-06 -2.05013e-05 -1.53194e-06
6.18383e-06 2.70293e-05 2.06564e-06
-8.15198e-06 -3.56062e-05 -2.77897e-06
1.07812e-05 4.69031e-05 3.69822e-06
-1.42799e-05 -6.17473e-05 -4.89726e-06
1.88599e-05 8.11629e-05 6.49896e-06
-2.48497e-05 -0.00010655 -8.63423e-06
3.27272e-05 0.000139754 1.14486e-05
-4.30675e-05 -0.000183121 -1.51613e-05
5.65919e-05 0.000239668 2.0065e-05
-7.42764e-05 -0.000313352 -2.653e-05
9.7412e-05 0.00040931 3.50118e-05
-0.000127649 -0.00053412 -4.61422e-05
0.000167076 0.000696259 6.07568e-05
-0.000218432 -0.000906679 -7.99255e-05
0.000285285 0.0011795 0.000105017
-0.000372241 -0.0015329 -0.000137823
0.000485208 0.00199019 0.000180677
-0.000631797 -0.0025813 -0.000236612
0.000821838 0.00334467 0.000309519
-0.00106798 -0.00432951 -0.000404436
0.00138649 0.00559885 0.000527878
-0.00179817 -0.00723323 -0.000688266
0.00232976 0.0093356 0.000896434
-0.00301554 -0.0120373 -0.00116631
0.00389935 0.015506 0.00151582
-0.00503728 -0.019955 -0.00196798
0.00650093 0.0256558 0.00255236
-0.00838173 -0.0329539 -0.00330681
0.0107962 0.0422877 0.00427982
-0.013893 -0.0542141 -0.00553342
0.0178609 0.0694388 0.00714687
-0.0229402 -0.0888556 -0.00922136
0.029436 0.113596 0.0118859
-0.0377356 -0.145091 -0.015305
0.0483301 0.185146 0.0196879
-0.0618412 -0.236042 -0.0253006
0.079056 0.300656 0.0324812
-0.10097 -0.382608 -0.0416586
0.128839 0.486458 0.0533767
-0.16425 -0.617939 -0.0683245
0.209203 0.784256 0.0873732
-0.266218 -0.994448 -0.111626
0.338467 1.25986 0.142473
-0.429937 -1.5947 -0.181672
0.545641 2.01676 0.231435
-0.691866 -2.5483 -0.294557
0.87651 3.21715 0.374534
-1.10945 -4.05803 -0.475801
1.40308 5.11434 0.603861
-1.77285 -6.44004 -0.765736
2.2382 8.10261 0.970023
-2.82318 -10.1856 -1.22787
3.55817 12.7936 1.55254
-4.48041 -16.0555 -1.96185
5.63743 20.1333 2.4759
-7.0864 -25.2241 -3.12356
8.90192 31.5796 3.93421
-11.1706 -39.4981 -4.95613
14.0106 49.3731 6.22889
-17.5499 -61.6477 -7.83787
21.9798 76.9465 9.82564
-27.4807 -95.9053 -12.3567
34.3736 119.546 15.4395
-42.8868 -148.713 -19.4271
53.5937 185.174 24.1582
-66.7006 -229.832 -30.4775
83.325 286.021 37.6111
-103.363 -353.964 -47.7655
129.228 440.676 58.1738
-159.542 -543.064 -74.9411
200.035 677.617 89.1218
-245.101 -829.451 -118.155
309.371 1040.96 134.422
-374.263 -1259.47 -188.473
478.932 1600.59 197.141
-566.553 -1896.17 -307.645
1.00508e-07 9.03252e-08 -5.44798e-08
1.03978e-08 -1.4083e-08 -1.6939e-08
1.44399e-08 5.29858e-08 -5.13782e-09
-1.16213e-08 -5.88114e-08 -5.42683e-09
1.94982e-08 8.17034e-08 1.74043e-09
-2.03897e-08 -1.01265e-07 -9.28238e-09
2.50287e-08 1.40385e-07 8.09385e-09
-5.19223e-08 -2.00626e-07 -7.23779e-09
5.4797e-08 2.58627e-07 1.84824e-08
-5.77463e-08 -3.42331e-07 -2.95352e-08
1.10909e-07 4.82794e-07 1.89021e-08
-1.66482e-07 -6.46414e-07 -2.72936e-08
1.63366e-07 8.13181e-07 7.30926e-08
-1.94342e-07 -1.08347e-06 -9.73688e-08
3.47885e-07 1.51887e-06 7.82139e-08
-5.00358e-07 -2.03983e-06 -9.92462e-08
5.83159e-07 2.64165e-06 1.91169e-07
-7.3136e-07 -3.48284e-06 -2.78883e-07
1.02451e-06 4.67328e-06 3.44412e-07
-1.41495e-06 -6.2472e-06 -4.30884e-07
1.87785e-06 8.29129e-06 5.79045e-07
-2.49752e-06 -1.0988e-05 -7.78386e-07
3.3208e-06 1.45354e-05 1.0564e-06
-4.36337e-06 -1.91731e-05 -1.4508e-06
5.75612e-06 2.53066e-05 1.95067e-06
-7.66969e-06 -3.34436e-05 -2.56791e-06
1.02133e-05 4.41426e-05 3.38702e-06
-1.34994e-05 -5.81258e-05 -4.51838e-06
1.77922e-05 7.6432e-05 6.03601e-06
-2.34799e-05 -0.000100444 -8.02128e-06
3.09632e-05 0.00013187 1.06489e-05
-4.07512e-05 -0.000172923 -1.41353e-05
5.35854e-05 0.000226535 1.8729e-05
-7.04365e-05 -0.000296514 -2.4748e-05
9.2507e-05 0.000387718 3.26728e-05
-0.000121305 -0.000506402 -4.31243e-05
0.00015888 0.00066073 5.68659e-05
-0.00020792 -0.000861252 -7.4874e-05
0.000271842 0.00112152 9.84661e-05
-0.000355032 -0.00145895 -0.000129363
0.000463179 0.001896 0.000169784
-0.000603678 -0.00246155 -0.000222568
0.000786042 0.00319266 0.000291421
-0.00102247 -0.00413683 -0.000381163
0.00132865 0.00535494 0.000498028
-0.00172478 -0.00692496 -0.000650031
0.00223683 0.00894661 0.000847493
-0.00289807 -0.0115473 -0.00110375
0.00375109 0.0148896 0.00143598
-0.00485044 -0.0191808 -0.00186627
0.00626587 0.0246852 0.00242295
-0.00808654 -0.0317391 -0.00314238
0.0104262 0.04077 0.00407119
-0.01343 -0.0523212 -0.00526912
0.0172826 0.0670822 0.00681256
-0.0222192 -0.0859273 -0.00879915
0.0285391 0.109964 0.0113535
-0.036622 -0.140595 -0.0146346
0.0469504 0.179593 0.0188451
-0.0601355 -0.229198 -0.0242428
0.076952 0.292238 0.0311557
-0.0983805 -0.372279 -0.0400005
0.125661 0.473815 0.0513058
-0.160359 -0.602503 -0.0657424
0.204453 0.765458 0.0841596
-0.260435 -0.971622 -0.107633
0.331449 1.23222 0.137521
-0.421448 -1.56135 -0.175544
0.53541 1.97665 0.223864
-0.679583 -2.50024 -0.285222
0.861824 3.1598 0.363048
-1.09197 -3.98989 -0.461698
1.38239 5.03377 0.586584
-1.7485 -6.34529 -0.744618
2.20972 7.99186 0.944275
-2.79012 -10.057 -1.19655
3.52012 12.6456 1.51455
-4.43707 -15.8867 -1.91589
5.58867 19.9429 2.42048
-7.03238 -25.0123 -3.05691
8.8432 31.3481 3.8544
-11.1084 -39.2506 -4.86079
13.9471 49.1165 6.11563
-17.4887 -61.3937 -7.70361
21.9258 76.7119 9.66778
-27.4422 -95.7171 -12.1712
34.3609 119.44 15.2243
-42.9168 -148.744 -19.1765
53.6859 185.41 23.8733
-66.8883 -230.383 -30.149
83.6426 287.006 37.2494
-103.875 -355.596 -47.3507
129.99 443.148 57.7438
-160.68 -546.788 -74.4435
201.627 682.872 88.6707
-247.396 -837.052 -117.599
312.452 1051.21 134.084
-378.646 -1274.05 -187.906
484.602 1619.5 197.247
-574.636 -1923.1 -307.109
-1.53067e-07 -8.99113e-08 9.18754e-08
-3.61e-08 -6.20549e-08 2.67607e-08
2.74129e-09 3.13938e-08 1.0977e-08
-1.52926e-08 -5.7658e-08 2.03827e-09
1.19645e-08 6.72651e-08 8.13156e-09
-1.68172e-08 -9.99407e-08 -3.87271e-09
4.28701e-08 1.4284e-07 2.60852e-09
-3.11912e-08 -1.72672e-07 -1.67088e-08
3.18337e-08 2.3169e-07 2.04891e-08
-9.58707e-08 -3.46426e-07 -1.01712e-09
1.20786e-07 4.42331e-07 2.17085e-08
-7.29273e-08 -5.3071e-07 -7.24993e-08
1.25208e-07 7.57136e-07 5.95799e-08
-3.04869e-07 -1.10988e-06 -1.3775e-08
3.72896e-07 1.43192e-06 6.29435e-08
-3.40048e-07 -1.78575e-06 -1.75948e-07
4.62678e-07 2.40486e-06 2.1478e-07
-7.57044e-07 -3.31804e-06 -2.04536e-07
1.04613e-06 4.44116e-06 2.59024e-07
-1.33058e-06 -5.8578e-06 -3.8569e-07
1.75565e-06 7.75164e-06 5.40768e-07
-2.32744e-06 -1.02528e-05 -7.51457e-07
3.04e-06 1.35399e-05 1.03855e-06
-4.05255e-06 -1.7956e-05 -1.3599e-06
5.48928e-06 2.38466e-05 1.74289e-06
-7.32988e-06 -3.15309e-05 -2.31075e-06
9.63495e-06 4.15342e-05 3.14048e-06
-1.26877e-05 -5.46932e-05 -4.22691e-06
1.6804e-05 7.20369e-05 5.61775e-06
-2.22131e-05 -9.47651e-05 -7.47233e-06
2.92684e-05 0.000124498 9.94758e-06
-3.85773e-05 -0.000163445 -1.31858e-05
5.08563e-05 0.0002144 1.74307e-05
-6.69272e-05 -0.000280895 -2.30657e-05
8.78892e-05 0.000367557 3.0542e-05
-0.000115312 -0.000480495 -4.03732e-05
0.000151227 0.000627572 5.32545e-05
-0.000198124 -0.000818835 -7.01769e-05
0.000259235 0.00106727 9.24115e-05
-0.000338838 -0.00138969 -0.000121552
0.000442496 0.00180776 0.000159657
-0.000577327 -0.00234931 -0.000209465
0.00075243 0.00305002 0.000274552
-0.000979613 -0.00395581 -0.000359504
0.00127413 0.00512559 0.000470213
-0.00165562 -0.00663487 -0.000614313
0.00214922 0.00858026 0.000801717
-0.00278719 -0.0110853 -0.00104522
0.00361097 0.0143079 0.00136124
-0.0046737 -0.0184497 -0.00177093
0.00604339 0.0237678 0.00230148
-0.00780695 -0.0305899 -0.00298787
0.0100754 0.0393329 0.00387499
-0.0129906 -0.0505273 -0.00502035
0.0167334 0.0648469 0.00649757
-0.0215341 -0.0831474 -0.00840089
0.027686 0.106514 0.0108508
-0.0355621 -0.136321 -0.014001
0.0456361 0.174309 0.0180477
-0.0585094 -0.22268 -0.023241
0.0749448 0.284215 0.0298991
-0.0959087 -0.362427 -0.0384267
0.122625 0.461746 0.0493383
-0.156639 -0.587756 -0.0632868
0.199908 0.747487 0.0811002
-0.254899 -0.949786 -0.103828
0.324727 1.20577 0.132798
-0.413313 -1.5294 -0.169691
0.5256 1.93821 0.216626
-0.6678 -2.45416 -0.276288
0.847733 3.10478 0.352045
-1.0752 -3.9245 -0.448174
1.36253 4.95643 0.569999
-1.72512 -6.25432 -0.724324
2.18238 7.88553 0.919505
-2.75839 -9.93364 -1.16639
3.48362 12.5036 1.47793
-4.39554 -15.7247 -1.87154
5.542 19.7605 2.36695
-6.98078 -24.8097 -2.99247
8.78729 31.127 3.77713
-11.0495 -39.0153 -4.7684
13.8873 48.8737 6.00576
-17.4318 -61.1554 -7.57323
21.8768 76.4954 9.51431
-27.4093 -95.5495 -11.9906
34.3547 119.357 15.0147
-42.9543 -148.803 -18.9322
53.787 185.678 23.5952
-67.0866 -230.971 -29.8277
83.9729 288.035 36.8957
-104.403 -357.28 -46.9441
130.77 445.684 57.3226
-161.84 -550.59 -73.9543
203.247 688.225 88.2287
-249.729 -844.776 -117.049
315.58 1061.61 133.755
-383.092 -1288.85 -187.34
490.354 1638.69 197.361
-582.83 -1950.41 -306.561
2.69321e-07 2.13111e-07 -1.54113e-07
3.98903e-08 2.07175e-08 -4.51686e-08
2.04631e-08 5.39499e-08 -1.54872e-08
-3.43653e-09 -4.0161e-08 -1.19264e-08
1.33583e-08 7.30131e-08 -1.27478e-09
-3.56944e-08 -9.99391e-08 -6.93342e-10
1.14147e-08 1.09892e-07 1.67077e-08
-1.74408e-08 -1.59655e-07 -1.12329e-08
9.21566e-08 2.55743e-07 -1.1958e-08
-7.46861e-08 -2.88655e-07 -2.81063e-08
-1.74975e-09 3.35372e-07 7.10043e-08
-1.16869e-07 -5.65314e-07 -8.10452e-09
3.01566e-07 8.35282e-07 -3.56299e-08
-2.26501e-07 -9.50807e-07 -8.09435e-08
1.14242e-07 1.14855e-06 1.90894e-07
-3.21569e-07 -1.69695e-06 -1.3038e-07
6.502e-07 2.43058e-06 5.94871e-08
-7.84484e-07 -3.16144e-06 -1.45875e-07
8.85763e-07 4.07921e-06 2.9635e-07
-1.19187e-06 -5.41318e-06 -4.11057e-07
1.60465e-06 7.19101e-06 5.54386e-07
-2.10361e-06 -9.54723e-06 -7.37262e-07
2.89379e-06 1.2776e-05 8.98994e-07
-3.99887e-06 -1.70428e-05 -1.12493e-06
5.26335e-06 2.24836e-05 1.57076e-06
-6.80214e-06 -2.95651e-05 -2.22327e-06
8.98627e-06 3.90196e-05 2.98891e-06
-1.20048e-05 -5.15583e-05 -3.93239e-06
1.59084e-05 6.79658e-05 5.23378e-06
-2.09687e-05 -8.94595e-05 -6.98296e-06
2.7743e-05 0.000117729 9.23336e-06
-3.66962e-05 -0.000154764 -1.22137e-05
4.83322e-05 0.000203101 1.62436e-05
-6.3517e-05 -0.000266212 -2.16068e-05
8.34978e-05 0.0003487 2.86122e-05
-0.000109789 -0.000456378 -3.77805e-05
0.000144115 0.000596622 4.98979e-05
-0.000188876 -0.000779108 -6.58765e-05
0.00024735 0.00101646 8.68201e-05
-0.000323701 -0.00132487 -0.000114235
0.000423183 0.00172513 0.000150173
-0.000552552 -0.00224397 -0.000197288
0.000720718 0.00291598 0.000258901
-0.000939231 -0.00378562 -0.000339315
0.00122284 0.00490986 0.000444193
-0.00159047 -0.00636175 -0.000580904
0.00206649 0.00823492 0.000758941
-0.00268236 -0.0106494 -0.000990465
0.00347848 0.0137587 0.00129119
-0.00450654 -0.0177589 -0.00168144
0.00583277 0.0229002 0.00218738
-0.00754195 -0.0295021 -0.00284267
0.00974264 0.0379714 0.00369042
-0.0125736 -0.0488263 -0.00478603
0.0162117 0.0627258 0.00620054
-0.0208828 -0.0805073 -0.00802496
0.0268744 0.103234 0.0103758
-0.0345527 -0.132254 -0.0134017
0.0443836 0.169278 0.0172929
-0.0569587 -0.216469 -0.0222916
0.0730293 0.276565 0.0287069
-0.0935482 -0.353026 -0.0369323
0.119723 0.450221 0.047468
-0.153082 -0.573664 -0.0609503
0.19556 0.730303 0.0781861
-0.2496 -0.928891 -0.1002
0.318288 1.18044 0.128289
-0.405516 -1.4988 -0.164099
0.516194 1.90137 0.209703
-0.656498 -2.40997 -0.267735
0.834211 3.052 0.3415
-1.0591 -3.86173 -0.4352
1.34346 4.88218 0.554071
-1.70268 -6.16698 -0.704815
2.15614 7.78344 0.895668
-2.72795 -9.81519 -1.13733
3.44863 12.3673 1.44262
-4.35576 -15.5695 -1.82872
5.49737 19.5858 2.31522
-6.93156 -24.616 -2.93012
8.73412 30.9162 3.70231
-10.9938 -38.7917 -4.67883
13.8312 48.6445 5.89914
-17.379 -60.9327 -7.44657
21.8327 76.2966 9.36508
-27.3821 -95.4024 -11.8148
34.3552 119.298 14.8104
-42.9996 -148.888 -18.6937
53.8972 185.978 23.3237
-67.2956 -231.597 -29.5136
84.3159 289.108 36.5496
-104.946 -359.017 -46.5454
131.57 448.285 56.91
-163.025 -554.472 -73.4731
204.897 693.678 87.7954
-252.1 -852.629 -116.506
318.757 1072.19 133.434
-387.603 -1303.85 -186.777
496.189 1658.15 197.483
-591.138 -1978.1 -306.004
-4.29504e-07 -2.9632e-07 2.54536e-07
-8.28171e-08 -1.062e-07 7.41406e-08
-1.34919e-08 5.20908e-09 3.04722e-08
-1.66934e-08 -6.26877e-08 1.3169e-08
2.85566e-08 6.72741e-08 2.39709e-09
1.78175e-09 -6.90389e-08 -1.48728e-08
1.08105e-08 1.14913e-07 2.12151e-09
-9.71349e-08 -1.95294e-07 2.0434e-08
2.14719e-08 1.68637e-07 4.23925e-08
4.93082e-08 -2.13607e-07 -5.75324e-08
1.66202e-07 4.72015e-07 -5.53767e-08
-2.9035e-07 -6.18158e-07 4.70956e-08
2.39478e-08 5.32583e-07 1.53129e-07
6.00213e-08 -7.12935e-07 -1.87434e-07
3.59586e-07 1.32081e-06 -1.80101e-08
-6.42404e-07 -1.85012e-06 6.76967e-08
5.02222e-07 2.16507e-06 1.4339e-07
-4.65275e-07 -2.72465e-06 -3.08872e-07
7.86546e-07 3.74769e-06 3.27686e-07
-1.13488e-06 -5.06617e-06 -3.8174e-07
1.49288e-06 6.78501e-06 4.68414e-07
-2.15961e-06 -9.17442e-06 -5.13974e-07
2.96412e-06 1.21953e-05 6.95629e-07
-3.69211e-06 -1.59115e-05 -1.13925e-06
4.66319e-06 2.08843e-05 1.66351e-06
-6.33211e-06 -2.77642e-05 -2.12334e-06
8.61564e-06 3.68759e-05 2.71146e-06
-1.13944e-05 -4.86806e-05 -3.63543e-06
1.49958e-05 6.4187e-05 4.86526e-06
-1.99725e-05 -8.46987e-05 -6.40281e-06
2.64699e-05 0.000111528 8.51803e-06
-3.47904e-05 -0.000146511 -1.14561e-05
4.5739e-05 0.000192362 1.5304e-05
-6.0335e-05 -0.000252547 -2.02332e-05
7.95937e-05 0.00033125 2.67187e-05
-0.000104616 -0.000433826 -3.54041e-05
0.000137296 0.000567567 4.68702e-05
-0.000180206 -0.000741968 -6.18464e-05
0.000236379 0.000969039 8.1492e-05
-0.000309592 -0.00126418 -0.000107393
0.000404897 0.00164746 0.000141458
-0.000529103 -0.00214494 -0.000186027
0.000690935 0.00279007 0.000244248
-0.000901325 -0.00362565 -0.000320381
0.00117449 0.00470675 0.000419901
-0.00152884 -0.00610425 -0.000549774
0.00198826 0.00790918 0.000718943
-0.00258338 -0.0102381 -0.000939086
0.00335328 0.01324 0.0012254
-0.00434831 -0.0171057 -0.00159743
0.00563309 0.0220791 0.00208026
-0.00729058 -0.0284717 -0.00270612
0.00942688 0.0366809 0.00351657
-0.0121776 -0.0472128 -0.00456509
0.0157159 0.060712 0.00592026
-0.0202631 -0.0779986 -0.00766999
0.0261017 0.100115 0.00992678
-0.0335912 -0.128385 -0.0128346
0.0431896 0.164487 0.0165778
-0.0554794 -0.210549 -0.0213913
0.0712007 0.269268 0.0275754
-0.0912933 -0.344051 -0.0355124
0.116949 0.439212 0.0456893
-0.14968 -0.560193 -0.0587258
0.191398 0.713866 0.075409
-0.244524 -0.908893 -0.0967394
0.312118 1.15619 0.123984
-0.398042 -1.46948 -0.158754
0.507174 1.86605 0.203079
-0.645656 -2.36759 -0.259543
0.821237 3.00135 0.331389
-1.04365 -3.8015 -0.422747
1.32516 4.81091 0.538768
-1.68114 -6.08314 -0.686052
2.13096 7.68545 0.87272
-2.69876 -9.70152 -1.10933
3.4151 12.2366 1.40855
-4.31769 -15.4207 -1.78738
5.45473 19.4185 2.26521
-6.88464 -24.4309 -2.86979
8.68363 30.7155 3.62983
-10.9412 -38.5796 -4.59198
13.7787 48.4285 5.79565
-17.3305 -60.7253 -7.32349
21.7934 76.1154 9.21993
-27.3606 -95.2755 -11.6436
34.3621 119.262 14.6113
-43.0525 -149.001 -18.4611
54.0164 186.309 23.0586
-67.5154 -232.26 -29.2063
84.6718 290.227 36.211
-105.504 -360.809 -46.1545
132.388 450.951 56.5056
-164.233 -558.437 -72.9998
206.578 699.233 87.3707
-254.51 -860.614 -115.97
321.984 1082.92 133.122
-392.181 -1319.09 -186.214
502.11 1677.9 197.612
-599.565 -2006.19 -305.435
7.183e-07 5.41421e-07 -4.23481e-07
1.17105e-07 1.06207e-07 -1.22147e-07
4.03534e-08 8.54337e-08 -5.15674e-08
-1.74125e-08 -3.38423e-08 -1.48735e-08
-7.70078e-09 4.68409e-08 7.60497e-09
-9.61009e-09 -9.02861e-08 7.79602e-09
1.09651e-07 1.54667e-07 -2.65526e-08
4.19192e-08 -7.33743e-08 -5.99235e-08
-5.6148e-08 1.57878e-07 2.67985e-08
-2.49902e-07 -4.3056e-07 1.13294e-07
2.17517e-07 3.9397e-07 1.8697e-09
2.3283e-07 -1.66607e-07 -2.51876e-07
-9.09708e-08 5.18316e-07 9.73241e-08
-5.93516e-07 -1.21304e-06 2.30236e-07
5.83186e-07 1.36518e-06 -8.9408e-08
-6.68857e-08 -1.25321e-06 -2.9895e-07
9.58823e-08 1.71615e-06 3.51713e-07
-6.33154e-07 -2.69558e-06 -1.71837e-07
9.24332e-07 3.69086e-06 1.62062e-07
-1.11853e-06 -4.90643e-06 -2.2034e-07
1.68519e-06 6.63167e-06 2.41109e-07
-2.12837e-06 -8.60997e-06 -5.07896e-07
2.36772e-06 1.10211e-05 9.93526e-07
-3.05979e-06 -1.4622e-05 -1.31102e-06
4.5623e-06 1.98256e-05 1.4198e-06
-6.31734e-06 -2.64527e-05 -1.7675e-06
8.1466e-06 3.48355e-05 2.48868e-06
-1.07147e-05 -4.60032e-05 -3.35138e-06
1.44151e-05 6.08671e-05 4.3945e-06
-1.90437e-05 -8.01784e-05 -5.96121e-06
2.48682e-05 0.000105351 8.16919e-06
-3.27845e-05 -0.000138666 -1.08591e-05
4.35985e-05 0.000182626 1.42174e-05
-5.76642e-05 -0.000240018 -1.8805e-05
7.57645e-05 0.000314809 2.50736e-05
-9.95632e-05 -0.00041262 -3.32789e-05
0.000131087 0.000540583 4.38964e-05
-0.000172356 -0.000707404 -5.79503e-05
0.000225998 0.000924462 7.66592e-05
-0.000295995 -0.00120695 -0.000101257
0.000387617 0.0015745 0.000133357
-0.000507299 -0.00205212 -0.000175344
0.000663028 0.00267176 0.000230509
-0.000865442 -0.00347489 -0.000302847
0.00112864 0.00451521 0.000397333
-0.00147069 -0.00586154 -0.000520566
0.00191461 0.00760204 0.000681282
-0.00248986 -0.00984966 -0.00089087
0.00323463 0.0127495 0.00116381
-0.00419821 -0.0164876 -0.00151865
0.00544382 0.0213017 0.00197947
-0.00705231 -0.0274956 -0.00257742
0.00912722 0.0354572 0.0033527
-0.0118012 -0.0456813 -0.00435682
0.0152443 0.058799 0.00565583
-0.0196734 -0.0756138 -0.00733459
0.0253659 0.0971479 0.00950198
-0.032675 -0.1247 -0.0122976
0.0420511 0.159922 0.0159
-0.0540676 -0.204905 -0.0205373
0.0694543 0.262305 0.0265009
-0.0891385 -0.335483 -0.0341627
0.114298 0.428693 0.0439967
-0.146425 -0.547314 -0.0566069
0.187415 0.698141 0.0727611
-0.239664 -0.889749 -0.0934363
0.306206 1.13295 0.119872
-0.390878 -1.44138 -0.153642
0.498524 1.83218 0.196738
-0.635256 -2.32693 -0.251693
0.808787 2.95276 0.32169
-1.02882 -3.7437 -0.41079
1.3076 4.7425 0.52406
-1.66047 -6.00267 -0.668
2.10681 7.59141 0.850618
-2.67077 -9.59247 -1.08234
3.38299 12.1113 1.37567
-4.28128 -15.2783 -1.74743
5.41402 19.2586 2.21685
-6.83997 -24.2544 -2.81139
8.63576 30.5245 3.5596
-10.8916 -38.3789 -4.50773
13.7298 48.2256 5.69517
-17.2861 -60.5329 -7.20385
21.7589 75.9517 9.07871
-27.3446 -95.1689 -11.4769
34.3757 119.25 14.4172
-43.1132 -149.142 -18.2339
54.1448 186.673 22.7996
-67.7461 -232.961 -28.9056
85.041 291.39 35.8797
-106.079 -362.656 -45.771
133.227 453.685 56.1094
-165.467 -562.485 -72.5341
208.29 704.893 86.9543
-256.961 -868.734 -115.439
325.263 1093.84 132.817
-396.828 -1334.55 -185.653
508.12 1697.94 197.75
-608.113 -2034.68 -304.855
-1.15881e-06 -8.36408e-07 6.92557e-07
-2.09178e-07 -2.49502e-07 2.11092e-07
-2.17226e-08 -3.82561e-08 7.32994e-08
7.63774e-09 -5.21917e-08 1.88861e-08
1.71193e-08 6.54046e-08 -4.26299e-09
-1.03898e-07 -1.13982e-07 2.23563e-08
-1.04425e-07 2.88903e-09 7.41608e-08
2.19298e-08 -1.52468e-07 1.95642e-08
3.38179e-07 4.04267e-07 -1.50319e-07
-4.94789e-08 -1.27492e-07 -1.1898e-07
-4.90775e-07 -9.56008e-08 3.14002e-07
-1.40646e-07 -6.0664e-07 1.31535e-07
9.14735e-07 1.21001e-06 -4.1479e-07
-2.41116e-07 -7.31565e-07 -1.23009e-07
-5.54073e-07 3.67175e-07 5.79349e-07
8.33357e-09 -1.17875e-06 -2.38776e-07
8.70862e-07 2.25631e-06 -1.63069e-07
-8.47999e-07 -2.8166e-06 6.24916e-08
7.99662e-07 3.5232e-06 9.56274e-08
-1.24893e-06 -4.67061e-06 -1.84603e-07
1.30108e-06 5.80533e-06 5.77085e-07
-1.23128e-06 -7.38869e-06 -9.96132e-07
2.06498e-06 1.03402e-05 9.0955e-07
-3.63981e-06 -1.44671e-05 -6.86054e-07
4.77445e-06 1.90935e-05 1.02892e-06
-5.70304e-06 -2.48266e-05 -1.74113e-06
7.6203e-06 3.28876e-05 2.32509e-06
-1.04166e-05 -4.36462e-05 -3.03007e-06
1.35583e-05 5.73682e-05 4.29871e-06
-1.75348e-05 -7.54383e-05 -5.94031e-06
2.34806e-05 9.98248e-05 7.63776e-06
-3.16655e-05 -0.000132 -9.82107e-06
4.17517e-05 0.000173629 1.31638e-05
-5.46628e-05 -0.000227927 -1.77708e-05
7.20378e-05 0.000299404 2.35509e-05
-9.53047e-05 -0.000393202 -3.09931e-05
0.000125478 0.000515394 4.11149e-05
-0.000164488 -0.000674522 -5.47206e-05
0.000215826 0.000882336 7.23887e-05
-0.000283471 -0.00115351 -9.53052e-05
0.000371857 0.00150638 0.0001255
-0.000486729 -0.00196473 -0.000165491
0.000636257 0.00256 0.000218
-0.000831444 -0.00333285 -0.00028648
0.00108571 0.00433504 0.000375915
-0.00141612 -0.00563286 -0.000492997
0.00184483 0.00731181 0.000646165
-0.00240095 -0.0094822 -0.000845943
0.00312213 0.0122856 0.00110599
-0.00405625 -0.0159029 -0.00144433
0.00526463 0.0205656 0.00188442
-0.00682612 -0.0265701 -0.00245632
0.00884221 0.0342957 0.00319849
-0.0114433 -0.0442269 -0.00416038
0.0147957 0.0569812 0.00540588
-0.0191124 -0.073346 -0.0070172
0.0246652 0.094324 0.00909987
-0.0318015 -0.121191 -0.011789
0.0409647 0.15557 0.0152574
-0.0527199 -0.199521 -0.0197267
0.0677864 0.255659 0.0254798
-0.0870792 -0.327298 -0.0328788
0.111761 0.418639 0.0423853
-0.14331 -0.534997 -0.0545877
0.1836 0.683093 0.0702354
-0.235007 -0.871418 -0.0902824
0.300541 1.1107 0.11594
-0.384009 -1.41444 -0.148751
0.490228 1.79971 0.190666
-0.625278 -2.28794 -0.244167
0.796843 2.90614 0.312384
-1.01459 -3.68822 -0.399304
1.29075 4.67685 0.509917
-1.64064 -5.92544 -0.650625
2.08365 7.50118 0.829325
-2.64396 -9.48789 -1.0563
3.35225 11.9912 1.34394
-4.24647 -15.1419 -1.70884
5.37519 19.1058 2.17007
-6.79751 -24.086 -2.75484
8.59046 30.343 3.49153
-10.845 -38.1892 -4.42599
13.6844 48.0355 5.59758
-17.2458 -60.3554 -7.08753
21.7292 75.8052 8.94128
-27.3342 -95.0822 -11.3145
34.3958 119.261 14.228
-43.1816 -149.309 -18.0121
54.2823 187.069 22.5465
-67.9879 -233.701 -28.6114
85.4235 292.6 35.5554
-106.67 -364.559 -45.3948
134.086 456.488 55.7209
-166.725 -566.619 -72.0757
210.033 710.661 86.5461
-259.453 -876.993 -114.914
328.595 1104.93 132.521
-401.545 -1350.24 -185.093
514.221 1718.29 197.896
-616.785 -2063.58 -304.263
1.89946e-06 1.41578e-06 -1.13899e-06
3.03344e-07 3.34947e-07 -3.32103e-07
3.95655e-08 1.23905e-07 -1.09469e-07
-1.6785e-08 -2.62158e-08 -2.48452e-08
8.80053e-08 8.52346e-08 -2.08312e-08
1.66161e-07 6.16328e-08 -1.02212e-07
4.53474e-08 1.90589e-07 -8.16415e-08
-4.02678e-07 -3.42955e-07 1.38384e-07
-2.32262e-07 -1.59733e-07 2.67988e-07
6.08479e-07 1.58016e-07 -2.57834e-07
6.63201e-07 9.32327e-07 -4.72434e-07
-1.07505e-06 -1.06027e-06 4.11324e-07
-5.82889e-07 -2.11685e-07 6.38981e-07
1.119e-06 2.44706e-07 -7.45743e-07
5.60935e-07 1.39075e-06 -2.78817e-07
-1.43289e-06 -2.27819e-06 6.28982e-07
5.42273e-07 1.97454e-06 -3.56294e-08
-2.48076e-07 -2.18793e-06 -2.8779e-07
7.3728e-07 3.00796e-06 3.50939e-07
-5.1195e-07 -3.62242e-06 -7.64042e-07
4.70873e-07 4.96912e-06 8.4834e-07
-1.88997e-06 -7.83525e-06 -2.02943e-07
3.38418e-06 1.09888e-05 -7.88043e-08
-3.47615e-06 -1.36597e-05 -6.55631e-07
3.62746e-06 1.735e-05 1.46265e-06
-5.34386e-06 -2.33677e-05 -1.70005e-06
7.53351e-06 3.11513e-05 2.16826e-06
-9.38675e-06 -4.07275e-05 -3.28329e-06
1.21933e-05 5.38752e-05 4.32697e-06
-1.71008e-05 -7.20514e-05 -5.10243e-06
2.32708e-05 9.55058e-05 6.55054e-06
-3.0084e-05 -0.000125273 -9.26712e-06
3.91184e-05 0.000164532 1.2691e-05
-5.2101e-05 -0.000216927 -1.65539e-05
6.93584e-05 0.000285559 2.17509e-05
-9.10565e-05 -0.000374608 -2.92351e-05
0.000119199 0.000490937 3.91629e-05
-0.000157036 -0.00064377 -5.16005e-05
0.000207176 0.000843655 6.77481e-05
-0.000272174 -0.00110363 -8.95582e-05
0.000356387 0.00144169 0.00011868
-0.000466643 -0.001882 -0.000156647
0.000611375 0.00245519 0.000205938
-0.00080013 -0.00319967 -0.000270641
0.00104529 0.00416504 0.000355939
-0.00136382 -0.00541625 -0.000467749
0.00177827 0.00703721 0.000613512
-0.00231713 -0.0091352 -0.000803397
0.00301623 0.0118472 0.00105116
-0.00392182 -0.0153491 -0.00137443
0.00509407 0.0198673 0.0017954
-0.00661077 -0.0256918 -0.00234254
0.00857153 0.0331935 0.00305282
-0.0111034 -0.0428458 -0.00397442
0.0143693 0.0552534 0.00516942
-0.0185779 -0.0711882 -0.00671718
0.0239969 0.0916349 0.00871949
-0.0309682 -0.117847 -0.011307
0.0399282 0.151421 0.0146475
-0.0514334 -0.194384 -0.0189564
0.0661929 0.249313 0.024509
-0.0851103 -0.319479 -0.0316573
0.109335 0.409027 0.0408506
-0.140329 -0.523214 -0.0526627
0.179948 0.668689 0.0678247
-0.230547 -0.853865 -0.0872691
0.295112 1.08937 0.112181
-0.377424 -1.38863 -0.14407
0.482272 1.76857 0.184847
-0.615707 -2.25053 -0.23695
0.785384 2.86141 0.303449
-1.00095 -3.63499 -0.388267
1.27459 4.61385 0.496314
-1.62163 -5.85134 -0.633895
2.06146 7.41464 0.808802
-2.61828 -9.38764 -1.03119
3.32285 11.8761 1.31328
-4.21324 -15.0114 -1.67153
5.33821 18.9599 2.1248
-6.7572 -23.9258 -2.70006
8.54768 30.1709 3.42553
-10.8014 -38.0104 -4.34665
13.6423 47.8581 5.50277
-17.2094 -60.1926 -6.97441
21.7041 75.6757 8.8075
-27.3294 -95.0155 -11.1561
34.4224 119.295 14.0434
-43.2578 -149.505 -17.7956
54.4292 187.497 22.2993
-68.2409 -234.48 -28.3234
85.8195 293.857 35.2379
-107.278 -366.519 -45.0257
134.966 459.361 55.3402
-168.011 -570.842 -71.6245
211.81 716.541 86.146
-261.988 -885.395 -114.395
331.982 1116.2 132.232
-406.336 -1366.18 -184.533
520.416 1738.95 198.049
-625.586 -2092.91 -303.659
-3.05974e-06 -2.25465e-06 1.84636e-06
-4.96992e-07 -5.80987e-07 5.34784e-07
-7.59725e-08 -1.38001e-07 1.75718e-07
-9.8e-08 -1.14063e-07 7.36274e-08
-2.14543e-07 -1.11838e-07 1.23063e-07
-1.44009e-07 -2.43631e-07 1.44092e-07
4.07471e-07 2.42573e-07 -7.86856e-08
5.86124e-07 4.35565e-07 -4.11429e-07
-4.65984e-07 2.79862e-08 4.11484e-08
-1.36412e-06 -1.33845e-06 8.19039e-07
7.3409e-07 4.61843e-07 -2.08938e-08
1.86094e-06 1.33253e-06 -1.30305e-06
-1.01999e-06 -1.08152e-07 3.91892e-07
-2.0564e-06 -2.43029e-06 1.2873e-06
1.75597e-06 2.14723e-06 -7.9644e-07
6.0727e-07 -5.27086e-07 -6.40322e-07
-5.80962e-07 7.9568e-07 7.57724e-07
-4.57068e-07 -1.84551e-06 -4.60225e-07
5.98673e-08 2.30476e-06 6.82928e-07
-4.21265e-07 -3.88784e-06 -2.28997e-07
2.54566e-06 6.75938e-06 -8.03015e-07
-3.2023e-06 -8.40482e-06 4.86665e-07
1.71934e-06 8.9742e-06 1.02779e-06
-1.65415e-06 -1.15249e-05 -1.62427e-06
3.88178e-06 1.65862e-05 1.23633e-06
-5.52798e-06 -2.21833e-05 -1.57238e-06
6.20083e-06 2.87172e-05 2.57638e-06
-8.62373e-06 -3.87064e-05 -2.87465e-06
1.31058e-05 5.25498e-05 2.897e-06
-1.72657e-05 -6.9093e-05 -4.2718e-06
2.11444e-05 8.978e-05 6.84508e-06
-2.76469e-05 -0.000118342 -9.18944e-06
3.79244e-05 0.000157101 1.14441e-05
-5.0544e-05 -0.000207023 -1.5221e-05
6.55373e-05 0.000271336 2.10622e-05
-8.58949e-05 -0.000356411 -2.81031e-05
0.000114358 0.000469142 3.64064e-05
-0.000151583 -0.000616184 -4.77618e-05
0.000198719 0.000806809 6.38825e-05
-0.000259984 -0.0010554 -8.51964e-05
0.000341521 0.00138082 0.000112246
-0.000449074 -0.00180539 -0.000147373
0.000588725 0.00235699 0.000194294
-0.000769694 -0.00307306 -0.000256651
0.00100576 0.00400346 0.000338067
-0.00131443 -0.00521194 -0.000443776
0.00171655 0.0067789 0.000581873
-0.00223844 -0.00880744 -0.000763082
0.00291516 0.0114313 0.0010003
-0.00379315 -0.0148234 -0.00130945
0.00493199 0.0192052 0.00171146
-0.00640716 -0.0248593 -0.00223438
0.00831502 0.0321474 0.00291473
-0.0107799 -0.0415329 -0.00379905
0.0139623 0.053609 0.00494658
-0.0180681 -0.0691339 -0.00643358
0.0233601 0.089074 0.00835868
-0.0301741 -0.114661 -0.0108491
0.0389394 0.147464 0.0140682
-0.0502044 -0.189481 -0.0182248
0.0646694 0.243252 0.0235862
-0.0832271 -0.312005 -0.0304946
0.107014 0.399837 0.0393879
-0.137476 -0.511941 -0.0508258
0.176451 0.654902 0.0655226
-0.226273 -0.837052 -0.0843893
0.289907 1.06894 0.108585
-0.371109 -1.36388 -0.139587
0.474642 1.73871 0.17927
-0.606527 -2.21466 -0.230025
0.774392 2.81849 0.294868
-0.987854 -3.58392 -0.377657
1.25909 4.55341 0.483223
-1.60341 -5.78026 -0.617781
2.0402 7.33166 0.789015
-2.5937 -9.29158 -1.00695
3.29475 11.766 1.28367
-4.18154 -14.8867 -1.63545
5.30303 18.8207 2.08099
-6.71901 -23.7733 -2.64699
8.50738 30.008 3.36152
-10.7607 -37.8423 -4.26963
13.6038 47.6931 5.41064
-17.1771 -60.0443 -6.86436
21.6838 75.5633 8.67724
-27.3301 -94.9687 -11.0018
34.4557 119.353 13.8633
-43.3418 -149.727 -17.584
54.5855 187.958 22.0576
-68.5052 -235.298 -28.0415
86.2295 295.161 34.927
-107.903 -368.537 -44.6634
135.866 462.306 54.9669
-169.322 -575.155 -71.1802
213.621 722.534 85.7536
-264.567 -893.945 -113.882
335.424 1127.66 131.951
-411.201 -1382.37 -183.974
526.707 1759.94 198.211
-634.519 -2122.68 -303.043
4.95031e-06 3.68689e-06 -2.99608e-06
8.01238e-07 8.8283e-07 -8.55198e-07
2.27087e-07 3.25834e-07 -3.04391e-07
2.67766e-07 2.07778e-07 -2.0607e-07
2.65597e-07 3.30904e-07 -2.36662e-07
-3.23913e-07 -7.78043e-08 -3.22713e-08
-9.13603e-07 -6.11308e-07 4.87314e-07
2.91979e-08 -4.45013e-07 3.15623e-07
2.00081e-06 1.55261e-06 -9.7317e-07
3.85785e-07 7.14754e-07 -8.01807e-07
-3.12916e-06 -2.14208e-06 1.71411e-06
-5.12814e-07 -1.33467e-06 8.6556e-07
4.09027e-06 3.75155e-06 -2.35902e-06
-6.24633e-07 -7.03652e-07 -1.36159e-07
-2.97993e-06 -1.82375e-06 2.07435e-06
8.89739e-07 -3.92664e-08 -8.83488e-07
1.16338e-06 1.89109e-06 -1.41965e-07
-2.20132e-07 -2.10865e-06 -4.2523e-08
1.09652e-06 3.91028e-06 -7.881e-07
-3.42711e-06 -6.13679e-06 1.54455e-06
2.01569e-06 5.35756e-06 2.04816e-07
9.97791e-07 -4.30102e-06 -2.2951e-06
2.28726e-07 7.3454e-06 1.72991e-06
-3.69255e-06 -1.24141e-05 -3.85751e-07
4.24148e-06 1.59832e-05 9.51459e-07
-3.83854e-06 -2.02972e-05 -1.87329e-06
6.74539e-06 2.85341e-05 1.27856e-06
-1.08044e-05 -3.88596e-05 -1.10413e-06
1.23123e-05 4.93321e-05 3.22331e-06
-1.377e-05 -6.3319e-05 -5.72464e-06
1.94921e-05 8.49814e-05 6.60986e-06
-2.82316e-05 -0.000114023 -7.55222e-06
3.6647e-05 0.000149568 1.08365e-05
-4.63321e-05 -0.000195581 -1.55708e-05
6.18003e-05 0.000258455 1.99251e-05
-8.40173e-05 -0.000342052 -2.49838e-05
0.000111048 0.000449377 3.34588e-05
-0.000144122 -0.000588013 -4.59731e-05
0.000188741 0.000770714 6.12841e-05
-0.000249908 -0.0010116 -7.98382e-05
0.00032992 0.00132549 0.000104799
-0.000432152 -0.00173247 -0.000139414
0.000564834 0.00226205 0.000185209
-0.000739951 -0.00295306 -0.000243834
0.000970231 0.00385286 0.000319711
-0.00126969 -0.00502055 -0.00042004
0.00165762 0.00653377 0.000552911
-0.00216171 -0.00849508 -0.000726841
0.00281832 0.0110367 0.000952846
-0.00367236 -0.0143266 -0.00124693
0.00477992 0.0185788 0.00163096
-0.00621381 -0.0240688 -0.00213252
0.00806953 0.0311518 0.00278575
-0.0104707 -0.0402832 -0.00363425
0.013575 0.0520449 0.00473525
-0.0175836 -0.0671794 -0.00616362
0.0227539 0.086635 0.00801583
-0.0294161 -0.111623 -0.0104151
0.037994 0.143688 0.0135191
-0.0490293 -0.1848 -0.0175299
0.0632133 0.237463 0.0227076
-0.081427 -0.304863 -0.029386
0.104794 0.391047 0.0379925
-0.134744 -0.501153 -0.0490729
0.1731 0.6417 0.0633242
-0.222177 -0.820947 -0.0816363
0.284918 1.04936 0.105143
-0.365056 -1.34016 -0.135292
0.467326 1.71008 0.173922
-0.597724 -2.18024 -0.223377
0.76385 2.77733 0.286624
-0.9753 -3.53493 -0.367453
1.24423 4.49543 0.470622
-1.58595 -5.71211 -0.602254
2.01984 7.25213 0.76993
-2.5702 -9.19958 -0.983544
3.26791 11.6607 1.25506
-4.15133 -14.7676 -1.60054
5.26961 18.6881 2.03857
-6.68288 -23.6286 -2.59555
8.46952 29.8541 3.29942
-10.7228 -37.6847 -4.19483
13.5685 47.5404 5.32109
-17.1488 -59.9104 -6.75728
21.6682 75.4676 8.55037
-27.3364 -94.9416 -10.8513
34.4955 119.434 13.6876
-43.4338 -149.978 -17.3773
54.7512 188.452 21.8213
-68.7811 -236.156 -27.7654
86.6534 296.513 34.6226
-108.545 -370.615 -44.3077
136.789 465.324 54.6008
-170.662 -579.561 -70.7427
215.466 728.644 85.3688
-267.191 -902.646 -113.373
338.925 1139.31 131.677
-416.144 -1398.82 -183.415
533.097 1781.25 198.381
-643.588 -2152.91 -302.414
-7.9322e-06 -5.88874e-06 4.8188e-06
-1.3504e-06 -1.48758e-06 1.38757e-06
-4.89499e-07 -5.76551e-07 5.76939e-07
-4.1103e-07 -5.05528e-07 4.19263e-07
1.67515e-07 -1.46242e-07 2.11705e-07
1.14389e-06 6.37119e-07 -4.49696e-07
6.59249e-07 9.77971e-07 -7.21773e-07
-2.25904e-06 -1.34285e-06 7.78698e-07
-2.26321e-06 -2.27605e-06 1.87612e-06
3.50039e-06 1.87344e-06 -1.30361e-06
3.82555e-06 4.07623e-06 -2.96645e-06
-5.24265e-06 -3.9351e-06 2.4167e-06
-3.3171e-06 -3.04746e-06 2.82352e-06
5.61595e-06 4.0426e-06 -3.38536e-06
1.21281e-06 1.61854e-06 -6.68628e-07
-3.34897e-06 -3.58563e-06 1.81279e-06
3.5678e-07 2.30334e-06 -6.5362e-07
-1.644e-06 -3.81561e-06 1.3502e-06
3.34114e-06 4.46411e-06 -1.0127e-06
1.13516e-06 -8.9606e-07 -2.44756e-06
-4.05796e-06 1.81677e-07 3.68848e-06
-8.96523e-07 -5.99072e-06 -5.05131e-07
5.27005e-06 1.09996e-05 -1.39763e-06
-3.1328e-06 -1.16882e-05 -3.84116e-07
1.99726e-06 1.44556e-05 1.19516e-06
-6.3072e-06 -2.18906e-05 3.05438e-07
9.03246e-06 2.84935e-05 3.29857e-07
-7.00531e-06 -3.34095e-05 -3.79302e-06
7.61829e-06 4.35828e-05 5.37328e-06
-1.46957e-05 -6.17624e-05 -4.07768e-06
2.19737e-05 8.32724e-05 4.47122e-06
-2.57193e-05 -0.000107128 -8.25802e-06
3.18175e-05 0.000140255 1.17491e-05
-4.53522e-05 -0.000188153 -1.32167e-05
6.2945e-05 0.000249977 1.62979e-05
-8.07201e-05 -0.00032648 -2.39069e-05
0.000102873 0.000426508 3.39352e-05
-0.000136693 -0.000561882 -4.38165e-05
0.000183838 0.000740835 5.57485e-05
-0.000242411 -0.000971449 -7.42454e-05
0.000315457 0.00126974 0.000100744
-0.00041263 -0.00166096 -0.000133928
0.000543902 0.00217466 0.000174814
-0.000716095 -0.00284369 -0.000228835
0.0009375 0.00371076 0.000302567
-0.00122388 -0.00483597 -0.000400647
0.00159883 0.00629935 0.000527429
-0.00209026 -0.0082011 -0.000691118
0.00273007 0.0106663 0.000905364
-0.00355904 -0.0138563 -0.00118754
0.00463311 0.0179815 0.00155734
-0.00602693 -0.023315 -0.00203863
0.00783563 0.0302056 0.00266353
-0.0101787 -0.0390974 -0.00347597
0.0132084 0.0505585 0.00453337
-0.0171217 -0.0653173 -0.00590837
0.0221734 0.0843075 0.00769281
-0.0286906 -0.108723 -0.0100046
0.0370912 0.140084 0.0129967
-0.0479083 -0.180331 -0.016867
0.0618228 0.231932 0.0218696
-0.0797051 -0.298034 -0.0283298
0.102667 0.382637 0.0366629
-0.132127 -0.490826 -0.0474006
0.16989 0.629057 0.0612234
-0.218253 -0.805519 -0.0790017
0.280138 1.03059 0.101846
-0.359253 -1.31741 -0.131175
0.46031 1.68262 0.168791
-0.58928 -2.14724 -0.216995
0.75374 2.73784 0.2787
-0.963264 -3.48793 -0.357636
1.22999 4.43984 0.458487
-1.56922 -5.64677 -0.587286
2.00036 7.17594 0.751516
-2.54773 -9.11153 -0.960942
3.2423 11.56 1.2274
-4.12257 -14.654 -1.56677
5.2379 18.5619 1.99748
-6.64879 -23.4914 -2.54568
8.43405 29.7091 3.23916
-10.6878 -37.5375 -4.12217
13.5366 47.3998 5.23401
-17.1244 -59.7907 -6.65306
21.6573 75.3887 8.42679
-27.3482 -94.9343 -10.7046
34.5419 119.538 13.516
-43.5336 -150.256 -17.1753
54.9265 188.98 21.5902
-69.0686 -237.054 -27.495
87.0917 297.915 34.3244
-109.205 -372.753 -43.9584
137.734 468.418 54.2417
-172.029 -584.062 -70.3116
217.348 734.874 84.9915
-269.862 -911.503 -112.87
342.486 1151.17 131.411
-421.167 -1415.53 -182.855
539.59 1802.91 198.559
-652.797 -2183.6 -301.772
1.267e-05 9.45263e-06 -7.72094e-06
2.23684e-06 2.42647e-06 -2.28953e-06
7.99932e-07 1.10735e-06 -1.04031e-06
8.6029e-08 5.32352e-07 -5.68723e-07
-1.20796e-06 -4.56388e-07 2.39422e-07
-1.44645e-06 -1.44265e-06 1.03512e-06
1.91351e-06 6.23849e-07 -2.08362e-07
4.47977e-06 3.71419e-06 -2.79815e-06
-2.05188e-06 6.1498e-08 -3.17384e-07
-8.25714e-06 -7.12224e-06 5.09631e-06
3.19796e-06 1.04679e-06 -9.53699e-08
1.01978e-05 8.71215e-06 -6.78728e-06
-5.36399e-06 -3.1801e-06 2.29521e-06
-7.7431e-06 -7.12739e-06 5.01208e-06
5.50002e-06 5.39333e-06 -3.33484e-06
1.81998e-06 -4.98194e-07 -3.85526e-07
8.83702e-07 2.02157e-06 -3.20583e-07
-1.55728e-06 -9.74352e-07 -1.18236e-06
-5.76225e-06 -4.11821e-06 5.28256e-06
4.93906e-06 8.52031e-07 -3.02775e-06
5.67116e-06 9.06927e-06 -3.45048e-06
-7.83013e-06 -1.13291e-05 3.59914e-06
5.01382e-07 7.36395e-06 9.37756e-07
-2.15174e-07 -9.90749e-06 -1.01445e-06
6.82979e-06 1.71809e-05 -1.31965e-06
-6.23316e-06 -1.91008e-05 -1.38466e-06
6.20742e-07 1.98242e-05 5.76424e-06
-3.7959e-06 -3.0212e-05 -4.37659e-06
1.38739e-05 4.72168e-05 6.11814e-07
-1.76717e-05 -6.1088e-05 -2.29218e-06
1.60173e-05 7.51433e-05 7.30558e-06
-2.15314e-05 -0.000100738 -8.43988e-06
3.56336e-05 0.000138871 7.04695e-06
-4.78928e-05 -0.000182653 -1.03788e-05
5.62711e-05 0.00023453 1.87876e-05
-7.15645e-05 -0.000307565 -2.58209e-05
0.000100338 0.000410424 2.99981e-05
-0.000136998 -0.000543023 -3.77088e-05
0.000176919 0.000709454 5.34434e-05
-0.000227452 -0.000926737 -7.41952e-05
0.000300658 0.00121746 9.63219e-05
-0.000401304 -0.00160054 -0.000123256
0.000528904 0.00209569 0.0001627
-0.000689449 -0.00273558 -0.000218783
0.000899677 0.00357025 0.000291102
-0.0011802 -0.00466216 -0.000381395
0.00154929 0.00608383 0.000498356
-0.00202686 -0.0079261 -0.000655027
0.00264359 0.0103115 0.000863785
-0.00344537 -0.0134039 -0.00113626
0.00449147 0.0174131 0.00148853
-0.00585306 -0.0226034 -0.001946
0.00761805 0.0293109 0.00254407
-0.00990137 -0.0379691 -0.00332647
0.0128552 0.0491385 0.00434601
-0.0166771 -0.0635387 -0.00566961
0.0216192 0.0820887 0.00738571
-0.0280013 -0.10596 -0.00961114
0.0362323 0.136647 0.0124971
-0.0468374 -0.176062 -0.0162362
0.0604905 0.226643 0.0210742
-0.0780546 -0.2915 -0.0273254
0.100631 0.374589 0.0353944
-0.129622 -0.480942 -0.0458012
0.166818 0.616953 0.059212
-0.214495 -0.790739 -0.0764791
0.275555 1.0126 0.0986887
-0.353688 -1.29561 -0.127229
0.453582 1.65629 0.163868
-0.581185 -2.11559 -0.210864
0.744049 2.69997 0.27108
-0.95173 -3.44287 -0.348186
1.21635 4.38654 0.446795
-1.55321 -5.58417 -0.572853
1.98173 7.10298 0.733743
-2.52628 -9.0273 -0.939107
3.2179 11.4638 1.20065
-4.09524 -14.5457 -1.53408
5.20788 18.442 1.95767
-6.61669 -23.3616 -2.49732
8.40093 29.5727 3.18067
-10.6555 -37.4005 -4.05157
13.508 47.2712 5.14933
-17.1039 -59.6852 -6.55159
21.6509 75.3265 8.30637
-27.3656 -94.9467 -10.5614
34.595 119.666 13.3486
-43.6415 -150.563 -16.9778
55.1115 189.541 21.3643
-69.368 -237.993 -27.2301
87.5446 299.366 34.0323
-109.884 -374.953 -43.6154
138.701 471.589 53.8896
-173.426 -588.66 -69.8869
219.266 741.228 84.6215
-272.581 -920.52 -112.371
346.108 1163.23 131.152
-426.272 -1432.52 -182.296
546.188 1824.91 198.746
-662.151 -2214.77 -301.117
-2.01118e-05 -1.5057e-05 1.23447e-05
-3.55371e-06 -4.02976e-06 3.76803e-06
-7.74704e-07 -1.60465e-06 1.6328e-06
9.98935e-07 -1.03689e-07 3.34725e-07
2.10574e-06 1.60815e-06 -1.06406e-06
-9.73515e-07 4.31515e-07 -5.68693e-07
-6.35433e-06 -4.43416e-06 3.13638e-06
-1.62085e-06 -3.58384e-06 3.00819e-06
1.19021e-05 8.5319e-06 -5.7955e-06
4.05179e-06 6.02906e-06 -5.23999e-06
-1.73043e-05 -1.3218e-05 9.56179e-06
-2.53001e-06 -4.64587e-06 3.97164e-06
1.79903e-05 1.52547e-05 -1.09299e-05
-2.34662e-06 -2.32112e-06 9.23449e-07
-9.06323e-06 -6.08048e-06 5.12667e-06
3.5668e-07 9.55728e-07 -1.73765e-06
-4.46334e-07 -2.38364e-06 3.3015e-06
9.18573e-06 6.34164e-06 -5.92399e-06
-7.90092e-08 4.43897e-06 -2.18895e-06
-1.46331e-05 -1.59721e-05 9.62203e-06
7.42526e-06 9.32122e-06 -3.24685e-06
6.3491e-06 -2.45868e-08 -4.56858e-06
-1.17655e-06 5.9347e-06 1.51099e-06
-8.06012e-06 -1.33317e-05 1.47413e-06
1.12023e-06 9.39059e-06 4.3994e-06
5.76189e-06 -9.3818e-06 -7.44526e-06
5.04321e-06 2.46331e-05 4.69532e-07
-1.6981e-05 -3.9709e-05 4.00614e-06
1.25399e-05 4.33399e-05 2.11205e-06
-6.3462e-06 -5.03729e-05 -7.74237e-06
1.6264e-05 7.42636e-05 4.38494e-06
-3.13675e-05 -0.00010482 -1.51453e-06
3.46832e-05 0.00013101 8.36487e-06
-3.45525e-05 -0.000164296 -1.75208e-05
4.95595e-05 0.000221942 1.89346e-05
-7.76905e-05 -0.000302866 -1.76678e-05
0.000103097 0.000397682 2.52121e-05
-0.0001252 -0.000513623 -4.1141e-05
0.000161117 0.000673446 5.56021e-05
-0.000221343 -0.00089369 -6.66418e-05
0.000299367 0.00117895 8.42303e-05
-0.000389224 -0.00154014 -0.000116561
0.000501967 0.00200883 0.00016087
-0.000658415 -0.00262967 -0.00021157
0.000872434 0.0034469 0.000272464
-0.0011495 -0.00450715 -0.000356233
0.00150121 0.00587675 0.000473939
-0.00195597 -0.00765425 -0.000629906
0.0025548 0.0099696 0.000828264
-0.00334231 -0.012981 -0.00108221
0.00436675 0.0168833 0.00141556
-0.00569107 -0.0219292 -0.00185724
0.00740473 0.0284523 0.00243751
-0.00962873 -0.0368864 -0.00319169
0.0125165 0.047785 0.00416855
-0.0162588 -0.0618507 -0.00543694
0.0210973 0.0799802 0.00708808
-0.0273447 -0.103324 -0.00923688
0.0354071 0.13336 0.0120269
-0.0458075 -0.171977 -0.0156412
0.059214 0.221585 0.0203172
-0.0764782 -0.285254 -0.0263636
0.0986864 0.366894 0.0341781
-0.127227 -0.471483 -0.0442702
0.163874 0.605358 0.0572898
-0.21089 -0.776573 -0.0740677
0.27116 0.995362 0.0956659
-0.348353 -1.2747 -0.123445
0.447134 1.63105 0.159139
-0.573428 -2.08524 -0.204968
0.734764 2.66367 0.263749
-0.94068 -3.39968 -0.339088
1.20329 4.33546 0.43553
-1.53789 -5.5242 -0.558933
1.96392 7.03316 0.716584
-2.50581 -8.9468 -0.918005
3.19467 11.3721 1.17477
-4.0693 -14.4426 -1.50243
5.17951 18.3282 1.91908
-6.58654 -23.2391 -2.4504
8.37014 29.4448 3.12387
-10.6261 -37.2735 -3.98295
13.4827 47.1545 5.06695
-17.0873 -59.5936 -6.45278
21.6493 75.2808 8.189
-27.3885 -94.9788 -10.4218
34.6547 119.817 13.1851
-43.7574 -150.897 -16.7847
55.3063 190.136 21.1432
-69.6795 -238.973 -26.9706
88.0123 300.868 33.7461
-110.581 -377.217 -43.2784
139.692 474.838 53.5441
-174.852 -593.359 -69.4682
221.221 747.708 84.2586
-275.349 -929.702 -111.877
349.793 1175.5 130.901
-431.461 -1449.79 -181.736
552.895 1847.28 198.94
-671.653 -2246.44 -300.447
3.17756e-05 2.4001e-05 -1.96988e-05
5.24038e-06 6.35231e-06 -6.03853e-06
7.64758e-08 1.87754e-06 -2.11286e-06
-2.29838e-06 -1.06061e-06 4.10677e-07
-2.65567e-07 -1.38266e-06 1.16617e-06
7.28264e-06 4.12522e-06 -2.72027e-06
6.99932e-06 7.77352e-06 -6.02149e-06
-1.2242e-05 -6.31916e-06 3.68179e-06
-1.63915e-05 -1.60158e-05 1.23666e-05
1.86864e-05 1.11019e-05 -7.08574e-06
2.12421e-05 2.08819e-05 -1.60809e-05
-2.49415e-05 -1.88328e-05 1.28187e-05
-1.40404e-05 -1.2476e-05 1.03111e-05
1.9857e-05 1.58663e-05 -1.20421e-05
3.92589e-06 7.16955e-07 2.02943e-07
-9.21152e-07 1.04291e-06 -1.70041e-06
-8.53646e-06 -2.49283e-06 1.876e-06
-1.17591e-05 -1.6022e-05 1.16423e-05
2.26289e-05 2.05672e-05 -1.31502e-05
3.2274e-06 2.09935e-06 -4.82038e-06
-1.82436e-05 -1.14978e-05 1.17837e-05
-1.24e-06 -4.87065e-06 -5.85162e-07
1.0521e-05 1.09098e-05 -1.69861e-06
6.62286e-06 -3.06903e-08 -8.08678e-06
-8.57162e-06 5.39438e-06 5.55518e-06
-1.43527e-05 -2.8224e-05 8.05915e-06
2.09316e-05 3.50649e-05 -7.57573e-06
-2.16951e-06 -2.50366e-05 -6.1716e-06
-2.71594e-06 3.14825e-05 8.61913e-06
-1.7862e-05 -5.92678e-05 1.55128e-06
2.94763e-05 7.96775e-05 -1.70754e-06
-1.8469e-05 -8.73616e-05 -1.16981e-05
1.5465e-05 0.000111337 1.7766e-05
-3.92101e-05 -0.000165012 -9.70886e-06
6.61257e-05 0.000227825 6.42157e-06
-7.44711e-05 -0.000287212 -1.9641e-05
8.149e-05 0.00036557 3.55956e-05
-0.000114495 -0.000490361 -3.97095e-05
0.000169945 0.000661521 4.06996e-05
-0.000225459 -0.00086798 -5.65978e-05
0.000279976 0.00112355 8.82464e-05
-0.000359127 -0.00146784 -0.000121244
0.000483593 0.00193674 0.000150312
-0.000650644 -0.00254995 -0.000189112
0.00085281 0.00333291 0.000253997
-0.001104 -0.00434241 -0.000347187
0.00143888 0.00566566 0.000461846
-0.00189224 -0.00740302 -0.000599942
0.0024886 0.00966413 0.000779603
-0.00325483 -0.0125879 -0.00102535
0.00423977 0.0163688 0.00135625
-0.00552047 -0.0212708 -0.00178685
0.00719521 0.0276306 0.00233932
-0.00937819 -0.0358672 -0.00305371
0.0122076 0.0465105 0.00398827
-0.0158644 -0.0602447 -0.00521417
0.0205912 0.0779581 0.00681447
-0.0267056 -0.100795 -0.00889187
0.0346135 0.130215 0.0115822
-0.0448281 -0.16808 -0.0150674
0.0580029 0.21676 0.0195855
-0.0749756 -0.279286 -0.025441
0.0968229 0.359526 0.0330199
-0.124925 -0.462416 -0.0428146
0.161047 0.594244 0.0554563
-0.207434 -0.763 -0.071758
0.266952 0.978843 0.0927623
-0.343245 -1.25467 -0.119806
0.440958 1.60685 0.154593
-0.565994 -2.05614 -0.199302
0.725865 2.62886 0.256698
-0.930094 -3.35827 -0.330329
1.19079 4.28653 0.424671
-1.52325 -5.4668 -0.545499
1.94693 6.9664 0.700008
-2.4863 -8.86992 -0.897601
3.17258 11.2846 1.14973
-4.04473 -14.3446 -1.47177
5.15277 18.2205 1.88168
-6.55833 -23.1236 -2.40487
8.34164 29.3254 3.0687
-10.5993 -37.1564 -3.91623
13.4606 47.0495 4.98678
-17.0746 -59.516 -6.35653
21.6523 75.2517 8.07457
-27.417 -95.0306 -10.2854
34.7212 119.992 13.0254
-43.8815 -151.26 -16.5959
55.5111 190.766 20.9269
-70.0032 -239.996 -26.7161
88.4952 302.422 33.4656
-111.296 -379.545 -42.9473
140.706 478.168 53.2051
-176.309 -598.16 -69.0555
223.216 754.319 83.9027
-278.168 -939.054 -111.388
353.544 1187.99 130.656
-436.737 -1467.35 -181.176
559.713 1870.03 199.144
-681.307 -2278.61 -299.764
-4.99653e-05 -3.80507e-05 3.13106e-05
-7.34639e-06 -9.59526e-06 9.25417e-06
9.06454e-07 -1.61852e-06 2.3176e-06
1.14456e-06 1.35816e-06 -7.77282e-07
-7.10636e-06 -3.10431e-06 1.91009e-06
-1.27553e-05 -1.12912e-05 8.38419e-06
7.49295e-06 -2.48132e-07 1.59879e-06
3.04141e-05 2.47553e-05 -1.79979e-05
-7.42251e-06 2.60121e-06 -3.97785e-06
-4.74015e-05 -4.01789e-05 2.94673e-05
1.45793e-05 5.39506e-06 -1.51455e-06
4.74104e-05 4.06172e-05 -3.08262e-05
-2.15863e-05 -1.67238e-05 1.16186e-05
-2.42371e-05 -1.72284e-05 1.25271e-05
5.80588e-06 6.29445e-06 -4.44194e-06
5.96534e-06 -4.57819e-06 4.32296e-06
2.57964e-05 2.65756e-05 -1.92577e-05
-1.88278e-05 -1.15254e-05 5.45587e-06
-2.99261e-05 -2.75187e-05 2.34483e-05
2.80585e-05 2.04029e-05 -1.68855e-05
1.55665e-05 1.40748e-05 -7.61142e-06
-1.40488e-05 -1.11972e-05 3.43028e-06
-1.68148e-05 -7.27642e-06 1.05411e-05
2.69017e-06 -1.16024e-05 3.01837e-06
3.14303e-05 3.84322e-05 -1.94092e-05
-1.72035e-05 -2.44616e-05 4.09974e-06
-1.75852e-05 1.93719e-06 1.64049e-05
6.50981e-06 -2.06764e-05 -6.89999e-06
2.80719e-05 5.43224e-05 -9.8238e-06
-2.37091e-05 -5.58813e-05 -6.9709e-07
-4.10113e-06 4.73921e-05 2.01263e-05
-4.39138e-06 -7.73059e-05 -1.4045e-05
4.39992e-05 0.000134108 -4.79209e-06
-5.8886e-05 -0.000172461 5.95908e-07
4.24209e-05 0.000196735 2.31762e-05
-4.55279e-05 -0.000255672 -3.23164e-05
9.04659e-05 0.000366049 2.05272e-05
-0.000140181 -0.000496542 -1.83202e-05
0.000164315 0.000631278 4.33084e-05
-0.000188412 -0.000806918 -7.50378e-05
0.000254969 0.0010713 8.98207e-05
-0.000365993 -0.00143513 -9.74303e-05
0.000491826 0.00188829 0.000126852
-0.00062474 -0.00245164 -0.000187499
0.000798679 0.00319161 0.000262063
-0.0010552 -0.00418629 -0.000336637
0.00140914 0.0054976 0.000424408
-0.00185805 -0.00718813 -0.00055453
0.00241809 0.00936151 0.000745459
-0.0031415 -0.0121822 -0.000997335
0.00410154 0.015865 0.00131021
-0.00537099 -0.0206621 -0.00170457
0.00702261 0.0268776 0.00222301
-0.00915177 -0.0349066 -0.00291623
0.0119002 0.0452784 0.00383256
-0.0154648 -0.0586869 -0.00502366
0.0200966 0.0760184 0.00656118
-0.0261043 -0.0983929 -0.00855129
0.0338742 0.127234 0.0111397
-0.0439036 -0.164368 -0.0145114
0.0568402 0.212139 0.0188947
-0.0735227 -0.273556 -0.0245761
0.095026 0.352458 0.0319248
-0.122719 -0.453734 -0.0414214
0.158347 0.58361 0.0536897
-0.204135 -0.75001 -0.0695319
0.262926 0.963019 0.0899719
-0.338348 -1.23546 -0.116318
0.435032 1.58365 0.150235
-0.558864 -2.02824 -0.193861
0.717339 2.5955 0.249913
-0.919965 -3.31861 -0.321886
1.17884 4.23969 0.414191
-1.50926 -5.4119 -0.532524
1.93071 6.90259 0.68399
-2.46773 -8.79657 -0.877871
3.15161 11.2014 1.1255
-4.02148 -14.2516 -1.44208
5.12761 18.1186 1.84541
-6.53201 -23.0152 -2.36068
8.31541 29.2142 3.0151
-10.5752 -37.0492 -3.85135
13.4418 46.9562 4.90875
-17.0658 -59.4522 -6.26275
21.6599 75.2391 7.96299
-27.4511 -95.1022 -10.1523
34.7944 120.191 12.8694
-44.0139 -151.652 -16.4112
55.726 191.431 20.7153
-70.3394 -241.061 -26.4667
88.9936 304.029 33.1906
-112.032 -381.939 -42.6219
141.745 481.581 52.8725
-177.797 -603.067 -68.6485
225.25 761.064 83.5536
-281.04 -948.58 -110.902
357.361 1200.7 130.419
-442.103 -1485.21 -180.614
566.647 1893.15 199.356
-691.119 -2311.31 -299.065
7.82863e-05 5.99714e-05 -4.93792e-05
1.05978e-05 1.39671e-05 -1.37117e-05
3.04425e-07 2.11958e-06 -2.97671e-06
6.43617e-06 2.69423e-06 -1.98781e-06
1.74104e-05 1.3315e-05 -9.6741e-06
2.11538e-06 9.88137e-06 -8.92767e-06
-4.02789e-05 -2.68589e-05 1.8177e-05
-1.97435e-05 -2.78615e-05 2.29128e-05
6.79627e-05 4.89922e-05 -3.37322e-05
2.77822e-05 3.5286e-05 -2.96288e-05
-8.57759e-05 -6.80533e-05 4.90385e-05
-1.11948e-05 -1.41673e-05 1.30376e-05
6.453e-05 5.17186e-05 -3.79899e-05
6.29087e-08 -6.42844e-06 4.65697e-06
-1.16359e-05 2.26252e-06 -2.6581e-06
-3.35406e-05 -2.45746e-05 1.60881e-05
-6.41985e-06 -1.89474e-05 1.85548e-05
6.67308e-05 5.81555e-05 -4.47853e-05
-1.57329e-05 -7.32566e-06 4.81353e-06
-5.01573e-05 -4.16974e-05 2.91498e-05
1.19217e-05 1.02629e-05 -3.95005e-06
3.05161e-05 1.31373e-05 -1.20017e-05
1.61071e-05 2.83152e-05 -1.81274e-05
-4.83215e-05 -4.48721e-05 2.55283e-05
-7.49528e-06 -4.06451e-06 1.46412e-05
4.46928e-05 2.40315e-05 -3.01208e-05
5.91567e-06 2.54337e-05 -3.90059e-06
-4.52858e-05 -5.58912e-05 1.88028e-05
4.32733e-06 2.51983e-05 1.27832e-05
3.03453e-05 -1.37144e-05 -2.87844e-05
1.29812e-05 6.92065e-05 -1.72931e-06
-6.28984e-05 -0.000122796 2.29164e-05
4.18782e-05 0.000119856 4.41163e-06
-1.48017e-06 -0.000117437 -3.53526e-05
2.62927e-05 0.00018451 2.22494e-05
-9.2561e-05 -0.000291444 5.37396e-06
0.000117956 0.000371616 6.37979e-06
-9.9186e-05 -0.000438441 -4.85896e-05
0.000112446 0.00056913 6.84187e-05
-0.000194198 -0.000795741 -5.37624e-05
0.000295869 0.00107811 4.96105e-05
-0.00036785 -0.00138926 -9.0288e-05
0.000435887 0.00177941 0.000154227
-0.00056664 -0.00233486 -0.000201179
0.000786313 0.00310356 0.000231256
-0.00106641 -0.0040924 -0.000285679
0.00138475 0.0053329 0.000396744
-0.00177489 -0.00692859 -0.000556801
0.0023088 0.00903581 0.000741151
-0.00304679 -0.0118183 -0.000950594
0.0040195 0.01544 0.00122306
-0.00525902 -0.0201098 -0.00160764
0.00684001 0.0261343 0.00213654
-0.0088919 -0.0339419 -0.00282576
0.0115818 0.0440804 0.00370107
-0.0150984 -0.0572233 -0.00482185
0.0196615 0.0742108 0.0062842
-0.0255543 -0.0961241 -0.00820863
0.0331603 0.124373 0.0107313
-0.0429904 -0.160782 -0.0140121
0.0557026 0.207691 0.0182576
-0.0721294 -0.268074 -0.0237475
0.0933239 0.345718 0.030855
-0.12063 -0.44545 -0.0400639
0.155773 0.573438 0.0519886
-0.200968 -0.737553 -0.0674082
0.259052 0.947832 0.0873147
-0.333642 -1.21704 -0.112983
0.42935 1.5614 0.146048
-0.552042 -2.00152 -0.188615
0.70919 2.56355 0.243363
-0.910285 -3.28065 -0.313735
1.16742 4.19487 0.404078
-1.49591 -5.35939 -0.520003
1.91525 6.84166 0.668519
-2.45006 -8.72663 -0.858793
3.13173 11.1222 1.10204
-3.99955 -14.1634 -1.41329
5.10402 18.0226 1.81022
-6.50757 -22.9136 -2.31776
8.29141 29.1112 2.96301
-10.5538 -36.9517 -3.78824
13.4261 46.8744 4.83278
-17.0608 -59.4022 -6.17136
21.6721 75.243 7.85417
-27.4908 -95.1936 -10.0224
34.8745 120.413 12.717
-44.1546 -152.072 -16.2305
55.9511 192.131 20.5081
-70.6882 -242.17 -26.2222
89.5078 305.69 32.921
-112.787 -384.4 -42.302
142.809 485.079 52.546
-179.318 -608.082 -68.2471
227.326 767.947 83.2112
-283.965 -958.286 -110.421
361.248 1213.64 130.189
-447.561 -1503.37 -180.051
573.699 1916.67 199.577
-701.094 -2344.55 -298.351
-0.000122262 -9.36426e-05 7.71282e-05
-1.7456e-05 -2.09789e-05 2.05135e-05
-8.08115e-06 -6.94302e-06 6.84748e-06
-2.03327e-05 -1.47769e-05 1.11151e-05
-1.42006e-05 -2.00613e-05 1.65213e-05
4.06867e-05 1.88846e-05 -1.06484e-05
5.82261e-05 5.68887e-05 -4.32179e-05
-6.3579e-05 -3.11338e-05 1.73783e-05
-0.000104035 -9.82347e-05 7.51204e-05
9.37264e-05 6.07176e-05 -3.90889e-05
0.000102983 9.47372e-05 -7.35605e-05
-0.000100132 -7.92709e-05 5.59913e-05
-5.09833e-05 -3.32873e-05 2.5699e-05
3.26706e-05 2.04675e-05 -1.49664e-05
3.62504e-05 1.01275e-05 -2.97884e-06
4.9329e-05 6.06423e-05 -4.93484e-05
-8.80111e-05 -6.48522e-05 4.56229e-05
-4.57145e-05 -5.1855e-05 4.19995e-05
9.79157e-05 8.06866e-05 -5.77695e-05
1.74084e-05 1.03105e-05 -1.06784e-05
-4.90298e-05 -2.19477e-05 1.60537e-05
-4.98785e-05 -5.07614e-05 3.52872e-05
4.7805e-05 3.01098e-05 -1.33856e-05
6.3713e-05 5.6922e-05 -5.19352e-05
-6.15453e-05 -3.6399e-05 3.36872e-05
-5.00263e-05 -5.69115e-05 3.24387e-05
5.81319e-05 5.3888e-05 -2.17584e-05
3.92653e-05 1.85653e-05 -3.69784e-05
-4.56497e-05 -8.04349e-07 2.58527e-05
-5.46309e-05 -9.35051e-05 3.56508e-05
8.10225e-05 0.000112908 -3.29513e-05
4.77823e-06 -5.13254e-05 -3.12585e-05
-4.10314e-05 5.3868e-05 4.70688e-05
-4.22998e-05 -0.000160683 6.82228e-06
0.000114502 0.000249673 -3.21149e-05
-7.72856e-05 -0.000254168 -1.89949e-05
2.12708e-05 0.000273161 6.98486e-05
-6.84863e-05 -0.000410703 -4.96965e-05
0.000184922 0.000624749 3.66853e-06
-0.000249833 -0.00081431 -1.74945e-05
0.000244513 0.000988485 8.97426e-05
-0.000273305 -0.00126476 -0.00014245
0.000412865 0.00172233 0.000138249
-0.000621149 -0.00233194 -0.00013018
0.000817419 0.00304703 0.000187061
-0.00100353 -0.00391843 -0.000308294
0.00126888 0.00508873 0.000437122
-0.00169476 -0.00669602 -0.000542035
0.00228979 0.00882091 0.000659971
-0.00302663 -0.0115374 -0.000858377
0.00392259 0.0150027 0.00117226
-0.00507207 -0.0194935 -0.0015895
0.0066105 0.0253736 0.00209288
-0.00866483 -0.0330564 -0.00270761
0.0113476 0.0430197 0.00350885
-0.0147986 -0.0558776 -0.00459198
0.0192345 0.0724628 0.00604323
-0.0249728 -0.0938872 -0.00794088
0.0324286 0.121583 0.0103848
-0.0421124 -0.157356 -0.0135302
0.0546518 0.203487 0.0176046
-0.0708419 -0.262885 -0.0229092
0.0917148 0.339287 0.0298172
-0.118614 -0.437492 -0.0387878
0.153272 0.563645 0.0503997
-0.197905 -0.725582 -0.0654009
0.255334 0.933276 0.0847649
-0.329151 -1.19941 -0.109755
0.423936 1.54013 0.14199
-0.545531 -1.97595 -0.183546
0.701396 2.53296 0.237054
-0.901018 -3.24429 -0.305894
1.1565 4.15197 0.394341
-1.48316 -5.30921 -0.507923
1.90054 6.78352 0.653563
-2.4333 -8.66006 -0.84032
3.11293 11.047 1.0793
-3.97891 -14.08 -1.38537
5.08198 17.9322 1.77607
-6.48497 -22.8187 -2.27609
8.26963 29.0162 2.91238
-10.5351 -36.8637 -3.72684
13.4137 46.8041 4.75881
-17.0596 -59.366 -6.08227
21.689 75.2634 7.74799
-27.5362 -95.3049 -9.89547
34.9615 120.66 12.568
-44.3037 -152.522 -16.0536
56.1866 192.866 20.3053
-71.0501 -243.323 -25.9823
90.0381 307.406 32.6567
-113.563 -386.931 -41.9875
143.899 488.663 52.2255
-180.871 -613.208 -67.851
229.444 774.972 82.8752
-286.945 -968.178 -109.943
365.206 1226.82 129.966
-453.114 -1521.85 -179.487
580.873 1940.6 199.806
-711.235 -2378.35 -297.622
0.000190252 0.000145143 -0.000119531
3.22482e-05 3.44283e-05 -3.28112e-05
2.42828e-05 2.13115e-05 -1.83981e-05
2.57085e-05 2.96106e-05 -2.42404e-05
-3.01094e-05 -1.5372e-06 -3.84187e-06
-9.57502e-05 -7.64792e-05 5.48196e-05
1.96744e-05 -2.03839e-05 2.3182e-05
0.000190819 0.000154587 -0.000111847
-2.20396e-05 2.12476e-05 -2.70244e-05
-0.000244902 -0.000206526 0.000152635
6.05066e-05 3.4026e-05 -1.66275e-05
0.000180114 0.000142257 -0.000106725
-4.07024e-05 -3.98079e-05 2.90922e-05
-6.05898e-05 -1.35316e-05 4.3448e-06
-9.05298e-05 -8.30616e-05 6.20731e-05
5.77031e-05 1.1929e-05 4.21072e-07
0.000165004 0.000157651 -0.000121091
-0.000113745 -8.64603e-05 5.82928e-05
-0.000108728 -8.30838e-05 6.46882e-05
6.18702e-05 3.16327e-05 -2.14847e-05
0.0001013 7.46687e-05 -5.06152e-05
-7.44028e-06 2.16208e-05 -2.74292e-05
-0.000144305 -0.000119864 9.45072e-05
2.84316e-05 -1.04277e-07 4.29082e-08
0.00013348 0.000118836 -8.08731e-05
-3.70255e-05 -2.53784e-05 2.51213e-06
-0.00011012 -7.35781e-05 6.95946e-05
1.96097e-05 -2.67255e-05 6.59028e-06
0.000130983 0.000143083 -8.19142e-05
-6.11238e-05 -6.93101e-05 1.0202e-05
-9.41232e-05 -4.16885e-05 8.19615e-05
5.31909e-05 -3.16664e-05 -3.49368e-05
0.000111308 0.000189526 -6.17169e-05
-0.000125128 -0.000204318 3.69787e-05
-1.28527e-05 0.000114579 6.92541e-05
5.14836e-05 -0.000148114 -8.54227e-05
9.11465e-05 0.000348561 -6.37531e-06
-0.000217644 -0.000527393 5.1623e-05
0.000180074 0.000579096 2.85952e-05
-9.699e-05 -0.000644123 -0.000126198
0.000158972 0.000900336 0.000118932
-0.000358802 -0.00132848 -4.6197e-05
0.0005301 0.00178174 4.30685e-05
-0.000594908 -0.00222596 -0.000153521
0.000664167 0.00281361 0.000284901
-0.000888911 -0.00372425 -0.000342269
0.00128908 0.0050074 0.000350194
-0.00176942 -0.00662054 -0.000417835
0.00227168 0.0085921 0.000612735
-0.00286852 -0.0111117 -0.000901348
0.00371042 0.01447 0.00121119
-0.00491352 -0.0189491 -0.00152894
0.00651844 0.0247974 0.00192875
-0.00855106 -0.0323168 -0.00251648
0.011111 0.0419752 0.00336116
-0.0144074 -0.0544636 -0.00448224
0.0187302 0.0706873 0.00589646
-0.0244077 -0.0917535 -0.00767543
0.0318034 0.119016 0.00996796
-0.0413627 -0.154188 -0.0129822
0.0536829 0.1995 0.0169573
-0.0695739 -0.257864 -0.0221588
0.0901015 0.333034 0.0289055
-0.116628 -0.429804 -0.0376189
0.150872 0.554267 0.0488702
-0.195012 -0.714175 -0.0634208
0.251828 0.919405 0.0822534
-0.324884 -1.18257 -0.106619
0.418751 1.51974 0.138097
-0.539271 -1.95141 -0.178707
0.693906 2.50363 0.23102
-0.892142 -3.20948 -0.298357
1.14607 4.11097 0.384936
-1.47103 -5.26133 -0.496223
1.88657 6.72815 0.639064
-2.41742 -8.59678 -0.822414
3.09519 10.9757 1.05726
-3.95953 -14.0013 -1.3583
5.06144 17.8473 1.74294
-6.46419 -22.7306 -2.23562
8.25003 28.9292 2.86317
-10.519 -36.7853 -3.66708
13.4044 46.7452 4.68674
-17.0623 -59.3435 -5.99539
21.7106 75.3003 7.64437
-27.5872 -95.4362 -9.77147
35.0554 120.931 12.4223
-44.4614 -153.002 -15.8805
56.4327 193.639 20.1066
-71.425 -244.522 -25.747
90.5848 309.178 32.3975
-114.359 -389.532 -41.6781
145.015 492.337 51.9109
-182.459 -618.449 -67.4601
231.606 782.142 82.5457
-289.983 -978.26 -109.469
369.237 1240.25 129.75
-458.766 -1540.66 -178.921
588.173 1964.95 200.045
-721.549 -2412.72 -296.876
-0.000294519 -0.000224196 0.000184823
-5.85907e-05 -6.11284e-05 5.66309e-05
-3.76928e-05 -4.46165e-05 3.90346e-05
1.13952e-05 -2.22815e-05 2.38249e-05
0.000118113 7.49688e-05 -4.92714e-05
6.07928e-05 9.31285e-05 -7.65988e-05
-0.000241767 -0.000160181 0.000107191
-0.000159391 -0.000188821 0.000152912
0.000361432 0.000268879 -0.000186889
0.000150839 0.000163773 -0.000136223
-0.000357618 -0.000285478 0.000207171
-6.24063e-05 -3.58697e-05 3.05151e-05
0.000143422 8.11134e-05 -5.53724e-05
0.00012509 7.01617e-05 -4.49391e-05
3.84726e-05 0.000102144 -9.05057e-05
-0.000298566 -0.000251804 0.000183884
9.10458e-06 -2.4854e-05 3.25043e-05
0.000278083 0.000222802 -0.000166875
-2.00956e-05 -6.13857e-06 9.28894e-07
-0.000175438 -0.000105253 6.84643e-05
-9.35459e-05 -0.000112792 9.52919e-05
0.000208701 0.000146532 -0.00010486
0.000107478 0.000126707 -0.000100538
-0.000228771 -0.000182916 0.000126265
-6.88635e-05 -6.77472e-05 6.57199e-05
0.000186233 0.000118772 -9.2933e-05
8.94104e-05 0.000121015 -8.54908e-05
-0.000209311 -0.00017968 0.000110341
-5.27345e-05 -5.23171e-05 7.55124e-05
0.000204643 0.000134131 -0.000132897
2.48982e-05 9.60821e-05 -3.65706e-05
-0.0002229 -0.000249096 0.000126082
5.93754e-05 9.64935e-05 1.96142e-05
0.000160687 4.78956e-05 -0.000148231
-5.55858e-05 0.000115835 4.70258e-05
-0.000209454 -0.000389337 0.000111082
0.000234313 0.000432275 -6.79051e-05
-2.48687e-05 -0.000308749 -0.000112577
-5.30397e-05 0.000368577 0.000164827
-0.000157189 -0.000720214 -3.0276e-05
0.000405887 0.00111047 -7.35372e-05
-0.000432927 -0.00132913 -2.11458e-05
0.000325914 0.00151483 0.000210135
-0.000372473 -0.00196974 -0.000281876
0.000680449 0.00279578 0.000202058
-0.001081 -0.00383865 -0.000142815
0.00138335 0.00496389 0.000259066
-0.00161971 -0.00629051 -0.000515826
0.00200444 0.00812676 0.000757208
-0.00270846 -0.0107361 -0.000901505
0.00372892 0.0142229 0.00103196
-0.0049724 -0.0186449 -0.00130777
0.00642856 0.0242119 0.00181795
-0.00825113 -0.0313765 -0.00253263
0.0106959 0.0407728 0.00338103
-0.0140104 -0.0531143 -0.00436327
0.0183914 0.0691799 0.00559371
-0.024042 -0.0899205 -0.0072563
0.031272 0.116622 0.00953149
-0.0405681 -0.151043 -0.0125643
0.0526098 0.195498 0.0164967
-0.068257 -0.252937 -0.0215348
0.0885597 0.327067 0.0280061
-0.114817 -0.422572 -0.0363833
0.148682 0.54543 0.0472829
-0.1923 -0.703317 -0.0614683
0.248454 0.906083 0.0798783
-0.32073 -1.16633 -0.103696
0.413714 1.50011 0.13444
-0.533244 -1.92787 -0.174085
0.686757 2.47558 0.225179
-0.883712 -3.17626 -0.29102
1.13618 4.0719 0.375785
-1.45952 -5.21572 -0.484873
1.87332 6.67545 0.625037
-2.40239 -8.53666 -0.805108
3.07845 10.9082 1.03594
-3.94137 -13.9271 -1.33209
5.04239 17.768 1.7108
-6.44521 -22.649 -2.19628
8.23262 28.8501 2.81527
-10.5056 -36.7164 -3.60887
13.3984 46.6978 4.6165
-17.0689 -59.3347 -5.91064
21.7369 75.3537 7.54322
-27.644 -95.5875 -9.65031
35.1563 121.226 12.2799
-44.6278 -153.512 -15.711
56.6895 194.448 19.9121
-71.8135 -245.766 -25.5162
91.1484 311.007 32.1432
-115.177 -392.205 -41.3738
146.159 496.102 51.602
-184.082 -623.807 -67.0742
233.812 789.463 82.2225
-293.079 -988.539 -108.998
373.344 1253.93 129.541
-464.519 -1559.81 -178.353
595.603 1989.73 200.292
-732.041 -2447.69 -296.113
0.000453307 0.000347636 -0.00028736
9.19041e-05 0.000106498 -9.83451e-05
1.54734e-05 5.7772e-05 -5.66146e-05
-0.000115876 -4.68221e-05 2.20743e-05
-0.000153073 -0.000156357 0.000118423
0.000211912 8.46068e-05 -4.18597e-05
0.000421321 0.000390697 -0.00029482
-0.000315162 -0.000157702 8.53727e-05
-0.00057577 -0.000523737 0.000399814
0.000415885 0.000298342 -0.000198811
0.000420057 0.000336043 -0.000257358
-0.000247437 -0.000189535 0.000134722
-0.000218945 -8.60632e-05 4.97129e-05
-0.000168541 -0.000213156 0.00016978
0.000346917 0.000221685 -0.000142949
0.000301754 0.000320232 -0.000259363
-0.000452712 -0.000355571 0.000256159
-0.000184337 -0.000148855 0.000116713
0.000259972 0.000146915 -9.36057e-05
0.00027344 0.000233249 -0.000177935
-0.000178549 -6.63907e-05 3.00384e-05
-0.000375442 -0.000350368 0.000267549
0.000238363 0.000159729 -9.96739e-05
0.000311927 0.000261848 -0.000206717
-0.000193949 -9.6892e-05 6.36906e-05
-0.000311954 -0.000288178 0.000211085
0.000198999 0.000121716 -5.9486e-05
0.000303645 0.000272865 -0.000233544
-0.000244236 -0.000141298 0.000116529
-0.000256161 -0.000285204 0.000193462
0.000296794 0.000259146 -0.000138869
0.000162871 0.000131591 -0.000173535
-0.000301818 -0.000165417 0.000195511
-0.000111226 -0.000252251 0.00010533
0.000389053 0.000476728 -0.000222515
-0.000112178 -0.000222255 -3.39743e-05
-0.000237052 -6.64323e-06 0.000257801
9.55503e-05 -0.00025652 -0.000114672
0.000336806 0.000752767 -0.000159915
-0.000469063 -0.000946703 0.000148059
0.000197925 0.000824934 0.000142129
4.24661e-07 -0.000886268 -0.000324813
0.000234782 0.00144863 0.000189823
-0.000704554 -0.00228293 3.70565e-05
0.000979364 0.00299544 -1.84829e-05
-0.000963048 -0.00357431 -0.0002737
0.000977296 0.0044218 0.000562171
-0.00135789 -0.00592206 -0.000622106
0.00210828 0.00811361 0.000532839
-0.00297774 -0.010812 -0.000566642
0.00379894 0.0139818 0.000895128
-0.0046933 -0.0179433 -0.00144584
0.00597254 0.0232545 0.00202477
-0.00789977 -0.0304579 -0.00253967
0.0105651 0.0399711 0.00310116
-0.013967 -0.0522148 -0.00393758
0.0181925 0.0678494 0.0052369
-0.0235336 -0.0879383 -0.00706535
0.0304765 0.113972 0.00941625
-0.0396179 -0.14782 -0.012329
0.0516101 0.191737 0.0159811
-0.0671921 -0.248494 -0.0207004
0.087296 0.321629 0.0269191
-0.113176 -0.415751 -0.0351258
0.146522 0.53686 0.0458646
-0.189546 -0.692693 -0.0597913
0.245076 0.893125 0.0777627
-0.316695 -1.15071 -0.100935
0.40894 1.4814 0.130842
-0.52759 -1.90551 -0.169486
0.680037 2.44892 0.219414
-0.875728 -3.14461 -0.283877
1.12676 4.03458 0.366971
-1.44853 -5.17217 -0.473986
1.86069 6.62522 0.611563
-2.38813 -8.47958 -0.788416
3.0627 10.8445 1.0153
-3.92444 -13.8575 -1.30662
5.02485 17.6941 1.67952
-6.42805 -22.5739 -2.15798
8.2174 28.7789 2.76863
-10.4948 -36.657 -3.55217
13.3955 46.6616 4.54806
-17.0793 -59.3395 -5.82799
21.7679 75.4237 7.44451
-27.7065 -95.759 -9.53192
35.2643 121.546 12.1407
-44.8029 -154.052 -15.545
56.9573 195.294 19.7215
-72.2156 -247.057 -25.2896
91.7293 312.894 31.8937
-116.017 -394.952 -41.0743
147.33 499.961 51.2987
-185.74 -629.285 -66.6931
236.064 796.938 81.9053
-296.237 -999.021 -108.531
377.528 1267.87 129.338
-470.377 -1579.31 -177.782
603.166 2014.96 200.549
-742.715 -2483.26 -295.334
-0.000693789 -0.000542393 0.000450035
-0.000112495 -0.000164821 0.000156753
7.8786e-05 -1.81751e-05 3.8536e-05
0.000218881 0.000173292 -0.000120007
-9.32055e-05 5.62534e-05 -6.65526e-05
-0.000664888 -0.000519812 0.000371246
-1.99047e-05 -0.000209804 0.000203656
0.00108969 0.000886094 -0.000641921
-5.00047e-05 9.05021e-05 -0.000117116
-0.00106991 -0.000872701 0.000646164
0.000127282 0.00011379 -6.70083e-05
0.000513347 0.000287457 -0.000196594
0.000308135 0.000249214 -0.000180668
-0.000221239 9.31929e-06 -5.34116e-05
-0.000800129 -0.000735771 0.000560068
0.00040427 0.000257449 -0.000158744
0.000675825 0.000545759 -0.000412108
-0.000258227 -0.000141526 8.32704e-05
-0.000553435 -0.000381054 0.0002707
-4.92718e-05 -0.0001828 0.00017024
0.000719058 0.000585857 -0.000427724
1.81954e-05 0.000103785 -0.000112138
-0.00068154 -0.000535635 0.000398305
-1.49788e-05 -9.97398e-05 9.59021e-05
0.00061693 0.00047937 -0.000340737
5.24076e-05 0.00014442 -0.000150958
-0.000651331 -0.000528769 0.000406327
3.33786e-05 -8.33497e-05 7.64797e-05
0.000632546 0.000564579 -0.000402415
-0.000152084 -6.71789e-05 -1.19834e-05
-0.000564131 -0.000469893 0.000404772
0.000251904 7.50143e-05 -8.30678e-05
0.0005207 0.000584996 -0.000386279
-0.000456847 -0.000435246 0.000207177
-0.000289023 -0.00020886 0.000319173
0.00048675 0.000239737 -0.000348662
0.000160406 0.000457508 -0.000145389
-0.000659897 -0.000912644 0.000388953
0.00032528 0.000605657 -1.77774e-05
0.000269838 -0.00019067 -0.000428202
-0.000225626 0.000489088 0.000339429
-0.000433766 -0.00137243 0.000123056
0.0009071 0.00204537 -0.000308336
-0.000739413 -0.00216072 -4.38425e-05
0.000348991 0.00224071 0.000519917
-0.000424611 -0.0030006 -0.000603756
0.00110747 0.00455252 0.000294475
-0.00192976 -0.00642307 -5.61608e-05
0.00243416 0.00823217 0.000265457
-0.0026811 -0.0101972 -0.000834781
0.00314751 0.0129815 0.00137103
-0.00424576 -0.0171688 -0.00161581
0.00600958 0.0229543 0.00169115
-0.00820628 -0.0303131 -0.00195974
0.0106854 0.0394173 0.00270209
-0.0136157 -0.0509147 -0.00392935
0.0174461 0.065893 0.0054638
-0.022698 -0.0856625 -0.00716957
0.0298032 0.111612 0.00912596
-0.0391148 -0.145285 -0.0116307
0.0510593 0.188645 0.0150747
-0.0663141 -0.244381 -0.0198136
0.0859133 0.316151 0.0261331
-0.111271 -0.408754 -0.0343226
0.144179 0.528292 0.0447993
-0.186837 -0.682451 -0.058217
0.24198 0.880938 0.0755214
-0.313073 -1.13611 -0.0979685
0.404581 1.46378 0.127136
-0.522268 -1.88422 -0.164986
0.673565 2.42333 0.213961
-0.867977 -3.11416 -0.27719
1.11765 3.99878 0.358656
-1.438 -5.13059 -0.463568
1.84873 6.57754 0.598512
-2.37476 -8.42567 -0.772139
3.04804 10.7846 0.995132
-3.90881 -13.7924 -1.28177
5.00882 17.6257 1.64906
-6.41267 -22.5054 -2.12074
8.20429 28.7153 2.7233
-10.4865 -36.6067 -3.49703
13.3957 46.6367 4.48141
-17.0936 -59.358 -5.74739
21.8036 75.5104 7.34813
-27.7749 -95.9509 -9.41616
35.3795 121.891 12.0044
-44.987 -154.622 -15.3824
57.2362 196.179 19.5347
-72.6318 -248.395 -25.0671
92.3278 314.842 31.6489
-116.88 -397.776 -40.7796
148.53 503.916 51.0007
-187.436 -634.888 -66.3167
238.364 804.573 81.5942
-299.456 -1009.71 -108.066
381.794 1282.08 129.142
-476.342 -1599.16 -177.209
610.868 2040.65 200.815
-753.579 -2519.46 -294.536
0.00105767 0.000846297 -0.000704142
9.55227e-05 0.000209813 -0.00021315
-0.000208987 -0.000101268 4.46034e-05
-6.41435e-05 -0.000190095 0.000157633
0.000770604 0.000480584 -0.000317754
0.000641575 0.000767301 -0.000615303
-0.0013614 -0.00091755 0.00060948
-0.00100747 -0.0010606 0.000850895
0.00169084 0.00130249 -0.000918337
0.000705295 0.000592289 -0.000478953
-0.00103826 -0.000737241 0.000524231
-0.000609154 -0.00032159 0.000212337
-6.00518e-05 -0.000351102 0.000320174
0.00128524 0.00100303 -0.00071583
0.000213257 0.000383232 -0.00035374
-0.00142638 -0.00114425 0.000841017
-0.000109875 -0.000135238 0.000131217
0.000932251 0.000568708 -0.000383465
0.000585038 0.000623029 -0.000497973
-0.000935215 -0.000619649 0.000412807
-0.000746615 -0.000752881 0.000606695
0.000988462 0.000711962 -0.000499475
0.000644227 0.000610416 -0.000481428
-0.000828631 -0.000538438 0.000353485
-0.00071022 -0.000707759 0.000573458
0.000872842 0.000601531 -0.000420444
0.000640814 0.000683467 -0.000542892
-0.000952653 -0.000731957 0.000502129
-0.000456407 -0.000501996 0.000445905
0.000976039 0.000735499 -0.000560706
0.000275027 0.000439674 -0.00034541
-0.00106039 -0.00096031 0.000665296
7.59007e-05 -2.41956e-05 0.000146158
0.000967774 0.000806761 -0.000721873
-0.000378483 -7.61974e-05 0.000135927
-0.000850177 -0.00102997 0.000649207
0.000825622 0.000875928 -0.000407542
0.000318322 0.0001589 -0.000477442
-0.000824919 -0.000393839 0.000700382
-2.44392e-05 -0.000653291 2.38756e-05
0.00104104 0.00171808 -0.000648044
-0.000942635 -0.00167043 0.000319864
3.10372e-05 0.000997166 0.000523005
0.000377523 -0.00105024 -0.000832796
0.000326113 0.00233623 0.000300128
-0.00143443 -0.00405435 0.000352484
0.00192492 0.00521819 -0.000306769
-0.00164716 -0.00583868 -0.000439538
0.0013773 0.00687858 0.00117306
-0.00191259 -0.00925188 -0.00129693
0.003319 0.0130641 0.00092131
-0.00503463 -0.0177994 -0.000679434
0.00655027 0.023107 0.00108971
-0.00792676 -0.0293676 -0.00213331
0.00973898 0.037607 0.00337707
-0.0126318 -0.0489882 -0.00442937
0.0169487 0.0644136 0.00529079
-0.0227162 -0.0845623 -0.00634945
0.0299224 0.110281 0.0081053
-0.0388295 -0.143018 -0.0108894
0.0501104 0.185056 0.0147832
-0.0647871 -0.239515 -0.0197542
0.0840925 0.310281 0.0258789
-0.1094 -0.402058 -0.0335037
0.142293 0.520637 0.0432765
-0.18475 -0.67337 -0.0560812
0.239386 0.869774 0.0729584
-0.309685 -1.1222 -0.095093
0.400214 1.4466 0.123885
-0.516854 -1.86335 -0.161106
0.667102 2.39846 0.209075
-0.860462 -3.08493 -0.270876
1.10903 3.96477 0.350512
-1.4282 -5.09135 -0.453215
1.83764 6.53268 0.585565
-2.36237 -8.37501 -0.756136
3.03444 10.7284 0.975489
-3.89433 -13.7316 -1.25771
4.99414 17.5623 1.61962
-6.39894 -22.4429 -2.08471
8.19322 28.6593 2.67932
-10.4808 -36.5657 -3.44339
13.3991 46.623 4.41643
-17.1118 -59.3903 -5.66866
21.8441 75.6139 7.25389
-27.8492 -96.1634 -9.30286
35.5021 122.262 11.871
-45.1803 -155.225 -15.223
57.5265 197.103 19.3516
-73.0622 -249.783 -24.8487
92.9443 316.851 31.4086
-117.765 -400.677 -40.4894
149.759 507.97 50.7081
-189.17 -640.619 -65.9449
240.713 812.371 81.2889
-302.74 -1020.62 -107.605
386.142 1296.56 128.953
-482.418 -1619.38 -176.633
618.712 2066.81 201.09
-764.637 -2556.31 -293.72
-0.00160945 -0.00130276 0.00108368
-6.2479e-05 -0.000211197 0.000238442
0.000148092 0.000195329 -0.000130983
-0.000689239 -0.000284418 0.000159277
-0.00135427 -0.00127635 0.000963493
0.000998893 0.000299812 -8.25594e-05
0.00265805 0.00238022 -0.00178768
-0.00146258 -0.000843539 0.000482966
-0.00267483 -0.00226272 0.00171862
0.00128649 0.000979632 -0.000667213
0.00153372 0.000889542 -0.000618301
0.000429808 0.000586958 -0.000476141
-0.00146279 -0.000787756 0.000473531
-0.00163592 -0.00168955 0.0013415
0.00198866 0.00148729 -0.00103666
0.0013193 0.00109589 -0.000853949
-0.00124819 -0.00072131 0.000462856
-0.0015409 -0.0012474 0.000929246
0.000652494 0.000144703 2.44754e-06
0.00201038 0.00175321 -0.00133127
-0.00074432 -0.00036737 0.000189006
-0.00182407 -0.00149784 0.00112228
0.000532831 0.00014966 -1.79091e-05
0.00181042 0.00151247 -0.00114144
-0.000487018 -9.17743e-05 -2.21264e-05
-0.0018403 -0.00162885 0.00123423
0.000707164 0.000349698 -0.000162397
0.001659 0.00147987 -0.00115929
-0.00089768 -0.000486382 0.000301722
-0.00149003 -0.00147042 0.00113227
0.00124008 0.000906434 -0.000573922
0.00110868 0.0011384 -0.000988049
-0.00152319 -0.00115061 0.000895574
-0.000590827 -0.000873227 0.000662226
0.00174717 0.0016675 -0.00113674
-0.00021401 -8.41027e-05 -0.000197197
-0.00152028 -0.00130358 0.00125561
0.000863545 0.000335373 -0.000474165
0.0011362 0.00164186 -0.000954876
-0.00166105 -0.00199014 0.000992061
0.000157068 0.000521332 0.000379937
0.0012003 0.000470387 -0.0013152
-0.000613399 0.000616449 0.000658935
-0.00117149 -0.00279636 0.000677705
0.00210101 0.00399578 -0.00102474
-0.00137706 -0.0036294 -2.24333e-05
0.000184685 0.00313791 0.00129148
-0.000144819 -0.00424948 -0.00149315
0.00158748 0.00722318 0.000592484
-0.00345026 -0.0108871 0.000302822
0.0045626 0.014104 -0.000155759
-0.00479813 -0.017 -0.001052
0.00507004 0.0208836 0.00246088
-0.00643776 -0.0272072 -0.00322512
0.00929503 0.0366719 0.00324327
-0.0132931 -0.0492054 -0.0031614
0.0178919 0.0646687 0.0038022
-0.0229772 -0.0836259 -0.00558232
0.0290856 0.107642 0.00835231
-0.0371934 -0.139059 -0.0116823
0.0483431 0.18059 0.0153027
-0.0634185 -0.235124 -0.0193827
0.0831997 0.305913 0.0245183
-0.108627 -0.397061 -0.0315202
0.141104 0.514106 0.0411873
-0.18272 -0.664537 -0.0542186
0.236352 0.85822 0.0712936
-0.305725 -1.10782 -0.0932693
0.395512 1.4294 0.121391
-0.511543 -1.84325 -0.157468
0.66117 2.37512 0.203968
-0.85375 -3.05778 -0.264128
1.1013 3.93312 0.342023
-1.41921 -5.05455 -0.442834
1.82726 6.4903 0.572997
-2.35061 -8.32702 -0.740877
3.02154 10.6753 0.956832
-3.88078 -13.6747 -1.23473
4.98071 17.5038 1.59128
-6.38687 -22.3867 -2.04975
8.18431 28.611 2.63644
-10.4778 -36.5342 -3.39092
13.4058 46.6209 4.35281
-17.134 -59.4366 -5.59158
21.8895 75.7345 7.16166
-27.9295 -96.3967 -9.19196
35.6321 122.657 11.7405
-45.3827 -155.858 -15.0668
57.8283 198.066 19.1723
-73.5072 -251.22 -24.6342
93.5793 318.922 31.1729
-118.674 -403.658 -40.2038
151.019 512.126 50.4207
-190.943 -646.481 -65.5773
243.113 820.338 80.9893
-306.09 -1031.74 -107.146
390.575 1311.34 128.77
-488.609 -1639.99 -176.054
626.702 2093.46 201.376
-775.896 -2593.83 -292.886
0.00244653 0.0019538 -0.0016188
0.000173195 0.000213822 -0.000251942
0.000523139 0.00011545 -5.9592e-05
0.00185275 0.00147495 -0.00106878
0.000133756 0.000954825 -0.000892646
-0.00420542 -0.00325303 0.00230042
-0.000622686 -0.00132212 0.00122482
0.00540961 0.00439015 -0.00319906
0.000150132 0.000289291 -0.000364161
-0.00354031 -0.00246124 0.00176352
-0.00120202 -0.000836289 0.000612211
0.00121735 7.309e-05 0.000147442
0.00367113 0.00323666 -0.0024254
-0.00134964 -0.000599993 0.000255785
-0.00374312 -0.00304577 0.00228437
0.000878022 0.000392885 -0.000175999
0.00299469 0.0020587 -0.0014517
0.000636957 0.00113191 -0.00100557
-0.00346823 -0.00266601 0.00191826
-0.00083817 -0.00112437 0.000985849
0.00330673 0.00249607 -0.00179268
0.000947075 0.0011559 -0.000992965
-0.00299755 -0.00217294 0.00153811
-0.0011885 -0.00147344 0.00124683
0.00314104 0.00244648 -0.00175971
0.000886887 0.0011723 -0.0010356
-0.00310538 -0.00245761 0.00180599
-0.000503757 -0.000914645 0.000830421
0.00313003 0.00264628 -0.00195221
-0.000125927 0.000348901 -0.000456856
-0.00303913 -0.00269894 0.00210513
0.000962669 0.000359315 -0.000166573
0.00267226 0.00266424 -0.00203557
-0.00190718 -0.00144555 0.000884085
-0.00181112 -0.00190382 0.00170595
0.00258363 0.00205341 -0.00166582
0.000605099 0.00120238 -0.000875431
-0.00290898 -0.00306638 0.00210089
0.00115796 0.00105768 -0.000289194
0.00194631 0.00173117 -0.00195823
-0.00213412 -0.00131799 0.00161711
-0.000701695 -0.00188951 0.000754529
0.00289914 0.00407626 -0.00206553
-0.00197659 -0.00307658 0.000735887
-0.000601739 0.000786588 0.00158945
0.00162502 -0.000575352 -0.00227561
0.000112385 0.0034508 0.000722293
-0.00285331 -0.00734597 0.0012306
0.00413974 0.00970827 -0.00147921
-0.00335812 -0.010181 -0.000243007
0.00205433 0.010772 0.00236209
-0.00221715 -0.0138547 -0.00316178
0.00452492 0.0202422 0.00232552
-0.0080779 -0.0289955 -0.00102193
0.0114958 0.0387771 0.00076355
-0.0141857 -0.0493569 -0.00221104
0.016773 0.0621062 0.00485647
-0.0205938 -0.0793765 -0.00762974
0.0268573 0.103501 0.00979375
-0.0361508 -0.136241 -0.0114549
0.048541 0.178999 0.0134489
-0.0640729 -0.233557 -0.0168303
0.0832836 0.302858 0.0223796
-0.107461 -0.391489 -0.0304247
0.138614 0.505812 0.0410094
-0.179312 -0.653962 -0.0542482
0.232574 0.845967 0.0706539
-0.30194 -1.09419 -0.0913115
0.391738 1.41416 0.117883
-0.507482 -1.82566 -0.152542
0.656369 2.35418 0.197912
-0.84778 -3.03253 -0.257146
1.09388 3.90284 0.334064
-1.41028 -5.01889 -0.433537
1.81692 6.44928 0.561736
-2.33914 -8.28106 -0.726842
3.00932 10.6252 0.939134
-3.86836 -13.622 -1.21242
4.96888 17.4508 1.56341
-6.37682 -22.3372 -2.01523
8.17782 28.5708 2.59414
-10.4776 -36.5124 -3.33935
13.4158 46.6304 4.29051
-17.1601 -59.4968 -5.51624
21.9398 75.8719 7.07164
-28.0158 -96.6508 -9.08366
35.7694 123.079 11.6129
-45.5943 -156.524 -14.914
58.1419 199.07 18.9967
-73.9669 -252.708 -24.4237
94.2335 321.057 30.9415
-119.607 -406.721 -39.9225
152.309 516.386 50.1382
-192.756 -652.479 -65.2138
245.563 828.478 80.696
-309.508 -1043.1 -106.688
395.1 1326.4 128.594
-494.913 -1660.99 -175.473
634.848 2120.62 201.67
-787.361 -2632.04 -292.032
-0.00370853 -0.00285357 0.00235141
-0.000766056 -0.000484074 0.000449159
-0.00195201 -0.00135553 0.000979912
-0.00166209 -0.00235168 0.00192441
0.00459321 0.00268635 -0.00166657
0.00487994 0.00512537 -0.00403791
-0.007032 -0.00503057 0.00340153
-0.00515046 -0.00469581 0.00372161
0.00593172 0.0044368 -0.00312589
0.00370506 0.00227594 -0.00163362
-0.000679655 0.000645956 -0.000717582
-0.00565819 -0.00406992 0.00283517
-0.00175421 -0.00255922 0.00223401
0.00690829 0.00543137 -0.00393611
0.00156414 0.00154878 -0.00131794
-0.00474377 -0.0029568 0.00198606
-0.00351662 -0.00339021 0.00266662
0.00410818 0.00250958 -0.00160578
0.0045414 0.00425021 -0.0033293
-0.00400589 -0.00264551 0.00174909
-0.00433252 -0.00380557 0.00294442
0.00317594 0.00176731 -0.00106306
0.00469131 0.00429917 -0.00333533
-0.0032415 -0.00196899 0.00122182
-0.00448837 -0.00418045 0.00328177
0.0034994 0.00226612 -0.0014803
0.00400399 0.00390053 -0.00308893
-0.00391721 -0.00275069 0.00184872
-0.00329845 -0.0034678 0.00285417
0.0045694 0.003526 -0.002542
0.0020655 0.00257891 -0.00217498
-0.00505714 -0.00433241 0.00317031
-0.000341652 -0.00103835 0.00113912
0.0050234 0.00458897 -0.00362976
-0.00167779 -0.000708467 0.000391671
-0.0041799 -0.00447177 0.00344428
0.00374845 0.00323885 -0.0021078
0.00195513 0.00230184 -0.00231587
-0.0046111 -0.0040643 0.00349102
0.000783195 -0.000367438 7.60058e-05
0.00412608 0.00507751 -0.00347677
-0.0038847 -0.00428688 0.00233893
-0.00074725 -0.000441761 0.0017671
0.00384775 0.00285376 -0.00383037
-0.00186615 0.000236666 0.00160099
-0.00277207 -0.00577585 0.00218618
0.00515459 0.00857139 -0.00333844
-0.00334844 -0.00701858 0.000740566
-0.000120453 0.00431799 0.00291445
0.00136819 -0.00485385 -0.00421442
0.00108879 0.0101063 0.00229061
-0.00547274 -0.0179123 0.000746957
0.00887185 0.0250443 -0.00201585
-0.0098794 -0.0302565 0.000313408
0.00950251 0.0352602 0.00321784
-0.0100622 -0.0433463 -0.00634623
0.0134082 0.0572363 0.00757395
-0.0199053 -0.0779057 -0.00709939
0.028703 0.105001 0.00645807
-0.0387875 -0.138244 -0.00739188
0.049961 0.17876 0.0108518
-0.0631911 -0.229607 -0.0167142
0.0803271 0.295511 0.0242084
-0.103553 -0.382256 -0.0326466
0.134993 0.496315 0.0419984
-0.176675 -0.645015 -0.0530709
0.230849 0.837235 0.0673299
-0.300456 -1.08444 -0.0865724
0.389615 1.4018 0.112668
-0.504003 -1.80934 -0.147515
0.651181 2.3331 0.193192
-0.840908 -3.00646 -0.252296
1.0856 3.87199 0.32827
-1.40095 -4.98364 -0.425844
1.80687 6.41006 0.55125
-2.32863 -8.23834 -0.712816
2.9986 10.5796 0.920974
-3.85778 -13.5748 -1.18956
4.95907 17.4041 1.53525
-6.36891 -22.2947 -1.98092
8.17362 28.5385 2.55267
-10.48 -36.4997 -3.28918
13.4289 46.6507 4.23012
-17.19 -59.5704 -5.44321
21.9946 76.0258 6.98423
-28.1078 -96.9255 -8.97819
35.9143 123.526 11.4885
-45.8155 -157.223 -14.7643
58.4674 200.114 18.8246
-74.4421 -254.248 -24.2166
94.9072 323.258 30.7146
-120.564 -409.868 -39.6447
153.634 520.754 49.8609
-194.608 -658.615 -64.8543
248.071 836.799 80.4071
-312.997 -1054.69 -106.234
399.711 1341.77 128.428
-501.342 -1682.4 -174.882
643.16 2148.29 201.983
-799.018 -2670.96 -291.166
0.00558727 0.00415103 -0.00341689
0.0021076 0.00157777 -0.00130118
0.00284053 0.00325034 -0.00258966
-0.00320391 -0.000346987 -0.00028758
-0.0100207 -0.00884023 0.0065364
0.00450351 0.00141407 -0.000312331
0.0142139 0.012244 -0.00920098
-0.0052735 -0.00357636 0.00218412
-0.0100957 -0.00703423 0.00511477
-0.000679392 -0.00124051 0.00110873
0.00703383 0.00353688 -0.00209928
0.00798328 0.00803007 -0.00630734
-0.00858913 -0.00598766 0.0040207
-0.00799254 -0.00670845 0.00516786
0.00558912 0.0031671 -0.00195579
0.00852841 0.00668169 -0.00493846
-0.00210475 0.000141401 -0.000640011
-0.0103933 -0.00864012 0.00644417
0.00160588 4.34489e-05 0.000421722
0.0096911 0.00761732 -0.00560971
-0.000250932 0.00125008 -0.0013954
-0.00963002 -0.00768782 0.00565286
-0.00019349 -0.0016309 0.00170743
0.00968123 0.0079667 -0.00592496
-0.000373204 0.00105797 -0.00125652
-0.0093107 -0.00783446 0.00586578
0.0012516 -0.000353234 0.000761807
0.00903625 0.00801225 -0.00613989
-0.0029411 -0.00121164 0.000471808
-0.00816923 -0.00774021 0.00603333
0.00501788 0.00332477 -0.00208121
0.00644348 0.00663813 -0.00542919
-0.00706494 -0.00553572 0.00399872
-0.00360907 -0.00459761 0.00388209
0.00844322 0.00768525 -0.00569863
-0.00048276 0.000701689 -0.00117677
-0.00785813 -0.00771834 0.00632684
0.00467878 0.00325669 -0.0023983
0.00494367 0.00616727 -0.00484335
-0.00778497 -0.0078159 0.00549936
0.00069218 5.93089e-05 0.00106751
0.0067155 0.00667659 -0.00631221
-0.00541669 -0.00394366 0.00391987
-0.00250802 -0.00498501 0.0029432
0.00779367 0.0102194 -0.00627217
-0.00514333 -0.00693214 0.00257183
-0.00178991 -0.000119634 0.00397509
0.00544975 0.00258881 -0.00670152
-0.00230506 0.00291943 0.0032931
-0.0045395 -0.0124392 0.00259895
0.00926243 0.0193678 -0.0054409
-0.00882887 -0.0206921 0.00284589
0.00504848 0.0191297 0.00291801
-0.00233807 -0.0203281 -0.00743559
0.00398234 0.0284136 0.00784804
-0.0100751 -0.0436185 -0.00471245
0.018205 0.0632429 0.001094
-0.0257167 -0.0845382 -0.000152602
0.0316488 0.107185 0.00317595
-0.0372141 -0.133936 -0.00920484
0.0449434 0.169555 0.0160954
-0.0573818 -0.21917 -0.0220492
0.076223 0.287209 0.0266434
-0.102258 -0.37745 -0.0309509
0.135967 0.494 0.0369381
-0.178326 -0.642643 -0.04665
0.231433 0.832025 0.0616425
-0.298817 -1.07445 -0.0828783
0.385466 1.38641 0.111023
-0.497795 -1.78904 -0.146952
0.643723 2.30893 0.192229
-0.832969 -2.97945 -0.249479
1.07765 3.84269 0.322549
-1.3931 -4.95208 -0.41669
1.79897 6.37589 0.538557
-2.32044 -8.20121 -0.696669
2.98998 10.5396 0.901412
-3.84897 -13.5328 -1.16635
4.95071 17.3625 1.50782
-6.36236 -22.2577 -1.94824
8.17089 28.5126 2.51345
-10.4843 -36.4949 -3.24157
13.4445 46.6811 4.17242
-17.2234 -59.6569 -5.37276
22.0542 76.1963 6.89942
-28.2059 -97.2214 -8.87511
36.067 124.001 11.3666
-46.0462 -157.955 -14.6171
58.8059 201.201 18.6555
-74.9328 -255.841 -24.0126
95.6008 325.527 30.4915
-121.549 -413.104 -39.3699
154.989 525.23 49.5907
-196.504 -664.901 -64.4945
250.641 845.299 80.1311
-316.539 -1066.53 -105.78
404.448 1357.46 128.269
-507.88 -1704.22 -174.302
651.63 2176.5 202.332
-810.903 -2710.66 -290.273
-0.00835265 -0.00628599 0.00522213
-0.00357888 -0.00389964 0.00327773
0.000598835 -0.00288774 0.0028718
0.0133124 0.00961856 -0.00656458
0.00417483 0.00759452 -0.0066366
-0.0238802 -0.0188666 0.0134784
-0.00471236 -0.00585965 0.00529922
0.0207713 0.0155928 -0.0112265
0.00617224 0.00424608 -0.00326198
-0.00795023 -0.0023839 0.00090083
-0.01668 -0.0140296 0.0103919
0.00461134 0.000826282 0.000376922
0.0193525 0.0156525 -0.011628
-0.0021665 -0.000151553 -0.000522477
-0.0157091 -0.0108022 0.0075879
-0.005111 -0.00680085 0.00580263
0.0165085 0.012141 -0.00856448
0.00725196 0.00781335 -0.0064791
-0.0150962 -0.0107544 0.00750646
-0.00861821 -0.008708 0.0070552
0.0134505 0.00918874 -0.00625718
0.00992829 0.0101137 -0.00817383
-0.0135244 -0.0096908 0.00670948
-0.00925287 -0.00950278 0.00772522
0.0134733 0.00982471 -0.00684986
0.00812148 0.00889064 -0.00737589
-0.0142535 -0.0110241 0.00790469
-0.00570967 -0.00711743 0.00611956
0.0150929 0.0125046 -0.00920213
0.00200747 0.00404375 -0.00391328
-0.0152565 -0.0135496 0.0103377
0.00280462 0.000217364 0.000612712
0.0139102 0.0135747 -0.0106322
-0.00830008 -0.00587605 0.00373636
-0.00981729 -0.010716 0.00897599
0.0127116 0.0108992 -0.00817859
0.00292612 0.00510789 -0.0045874
-0.0140349 -0.0141393 0.0108332
0.00583548 0.00417963 -0.00216217
0.00956724 0.0106518 -0.00939843
-0.0120585 -0.0109483 0.00889243
-0.000540949 -0.00323996 0.00257699
0.0122755 0.0145984 -0.0108215
-0.00995094 -0.0106011 0.00645476
-0.00261401 -0.00303439 0.00513635
0.0111606 0.0106664 -0.0112932
-0.00719441 -0.00407692 0.00605224
-0.00456028 -0.0104068 0.00475515
0.0127737 0.0199566 -0.0105639
-0.0109049 -0.0179335 0.00634586
0.00210635 0.00891509 0.00375709
0.00505061 -0.00335554 -0.0112102
-0.00432777 0.0085063 0.0105807
-0.00391225 -0.0235973 -0.00325033
0.0142916 0.0419837 -0.00463583
-0.0212347 -0.0571271 0.00720662
0.0228475 0.0673865 -0.00270686
-0.0215311 -0.0767504 -0.0061312
0.0218194 0.0920707 0.0145976
-0.0275311 -0.119403 -0.019168
0.0401092 0.161875 0.0193182
-0.0587656 -0.219941 -0.0173289
0.0818631 0.293357 0.0167133
-0.108491 -0.383496 -0.0204488
0.139438 0.494913 0.02994
-0.177339 -0.635813 -0.0450143
0.226233 0.817719 0.0646753
-0.290998 -1.05498 -0.0881015
0.377018 1.36471 0.115428
-0.490272 -1.76738 -0.148119
0.637806 2.28822 0.188936
-0.828466 -2.95916 -0.241731
1.07378 3.82133 0.311198
-1.3889 -4.92788 -0.402875
1.79363 6.34739 0.523212
-2.31358 -8.16779 -0.680187
2.98172 10.5018 0.883538
-3.83997 -13.4924 -1.14622
4.94212 17.3227 1.48412
-6.35598 -22.2236 -1.91932
8.16903 28.4916 2.47755
-10.4904 -36.4976 -3.19672
13.4629 46.7221 4.11682
-17.261 -59.7575 -5.30399
22.1186 76.3848 6.816
-28.3113 -97.5402 -8.77328
36.2273 124.502 11.2465
-46.2883 -158.723 -14.4713
59.1569 202.331 18.4896
-75.4394 -257.492 -23.8101
96.3181 327.865 30.2728
-122.556 -416.429 -39.0988
156.384 529.825 49.3245
-198.449 -671.338 -64.1413
253.249 853.989 79.8693
-320.197 -1078.66 -105.311
409.272 1373.44 128.178
-514.493 -1726.56 -173.693
660.439 2205.36 202.727
-822.915 -2751.25 -289.397
0.0124236 0.0102253 -0.00862152
0.00253378 0.00616955 -0.0056526
-0.0122857 -0.00558869 0.00284675
-0.0168052 -0.0185193 0.0144183
0.0262552 0.0165723 -0.0105253
0.0291686 0.0276787 -0.0216961
-0.0291684 -0.0215623 0.0147948
-0.0232716 -0.0165356 0.0123324
0.00789359 0.00181078 -0.000280546
0.0265177 0.0179986 -0.0124013
0.00974971 0.0134933 -0.0115628
-0.0326955 -0.0250022 0.0178478
-0.0117952 -0.0111424 0.00913598
0.0231086 0.0143775 -0.00953723
0.0204672 0.0185962 -0.0144271
-0.0178098 -0.0101291 0.00614487
-0.0255031 -0.0225148 0.0173129
0.0148721 0.00845749 -0.00502337
0.0255527 0.0214486 -0.0162486
-0.0101126 -0.00389618 0.00148649
-0.0271284 -0.0233395 0.0177201
0.00921453 0.0036586 -0.001363
0.026523 0.0229667 -0.0174889
-0.0094306 -0.00393542 0.00157645
-0.0255458 -0.0228174 0.017564
0.0115403 0.00602474 -0.00321265
0.0236517 0.0221903 -0.0173658
-0.0153801 -0.0100116 0.00635773
-0.0198711 -0.019938 0.0160347
0.0198715 0.0149275 -0.0104053
0.0137462 0.0156627 -0.0131085
-0.0239464 -0.0203029 0.0149341
-0.00446935 -0.00781782 0.00745805
0.0250801 0.0234052 -0.018138
-0.00702069 -0.00292318 0.000986071
-0.0208763 -0.0220319 0.01768
0.0181609 0.0153606 -0.0108043
0.0094727 0.0123837 -0.0112244
-0.0233599 -0.0227708 0.0180623
0.00642307 0.00279653 -0.00127308
0.0180473 0.0212229 -0.0170455
-0.0200813 -0.0201262 0.0144839
-0.000898511 -0.00332075 0.00512064
0.0195716 0.0212308 -0.0189191
-0.015987 -0.0140537 0.0122361
-0.00443439 -0.00996527 0.00694535
0.0202654 0.026697 -0.0187972
-0.017218 -0.0215942 0.0123261
0.000146092 0.00191265 0.00558992
0.0144236 0.0127019 -0.0187162
-0.0142114 -0.00854619 0.0165449
0.000296419 -0.0120781 -0.0020018
0.0161886 0.035294 -0.0127986
-0.0241829 -0.0479561 0.0168954
0.0205298 0.0470585 -0.00800266
-0.0106368 -0.0403729 -0.00739853
0.00341282 0.0400128 0.0197203
-0.00526169 -0.0547922 -0.0226955
0.0170769 0.0863776 0.0164683
-0.035176 -0.130556 -0.00638663
0.0545531 0.181633 -0.000726412
-0.0720554 -0.236849 0.000173529
0.0879029 0.298646 0.00894596
-0.105333 -0.374388 -0.024289
0.129145 0.474507 0.0421771
-0.164191 -0.610532 -0.0596448
0.214531 0.794063 0.0757318
-0.283473 -1.03707 -0.0917526
0.374266 1.35333 0.110759
-0.491098 -1.76042 -0.136707
0.640048 2.28195 0.173713
-0.82991 -2.94964 -0.225747
1.07276 3.80555 0.29666
-1.38466 -4.90427 -0.390729
1.78619 6.316 0.513097
-2.30374 -8.12996 -0.670802
2.97051 10.4599 0.872976
-3.82895 -13.4498 -1.13246
4.93267 17.2836 1.46512
-6.35026 -22.1935 -1.89336
8.16898 28.4778 2.44295
-10.4998 -36.5106 -3.15212
13.4853 46.7766 4.06058
-17.3039 -59.8746 -5.23468
22.189 76.5939 6.73157
-28.4247 -97.8831 -8.67177
36.3951 125.035 11.1258
-46.5449 -159.528 -14.3273
59.5151 203.507 18.3245
-75.9752 -259.204 -23.6095
97.0418 330.274 30.0609
-123.61 -419.865 -38.8242
157.809 534.535 49.0768
-200.43 -677.959 -63.7847
255.975 862.923 79.6188
-323.909 -1091.08 -104.885
414.163 1389.88 128.088
-521.549 -1749.66 -173.036
669.255 2234.81 203.438
-835.368 -2793.35 -288.433
-0.0184696 -0.017279 0.0146653
0.00527981 -0.00326888 0.00454433
0.0257866 0.0231337 -0.0166365
-0.0140862 0.000513374 -0.00346433
-0.0640547 -0.0555184 0.0413218
0.0180276 0.00833053 -0.00315202
0.0593911 0.0451722 -0.0332085
-7.07843e-05 0.00220053 -0.00279086
-0.0374767 -0.0198499 0.0123587
-0.0372754 -0.0365782 0.0285727
0.0381638 0.024838 -0.016077
0.0437825 0.0366037 -0.0279436
-0.0236568 -0.0123778 0.00703732
-0.0460829 -0.0355874 0.0261317
0.00513491 -0.00439292 0.00586996
0.0523057 0.0417379 -0.0306656
0.00157332 0.00749764 -0.00781458
-0.0484913 -0.0366086 0.0264036
-0.0102708 -0.0152525 0.0136273
0.0474373 0.0362013 -0.0260404
0.013674 0.0177961 -0.0155193
-0.0462694 -0.0357042 0.0257447
-0.0135554 -0.017728 0.0155128
0.0455287 0.0358802 -0.0260728
0.0106885 0.0157905 -0.0142132
-0.0460173 -0.0379824 0.0280848
-0.00381619 -0.0100287 0.00999745
0.0455886 0.0396327 -0.0299624
-0.00615594 0.00130658 -0.00341277
-0.0430128 -0.0401252 0.0311512
0.0190158 0.0111837 -0.00628066
0.0353414 0.0360359 -0.0290583
-0.0320768 -0.0252451 0.0177957
-0.0206507 -0.0250218 0.0213561
0.0409106 0.0373882 -0.0282074
-0.00112281 0.00502166 -0.00648471
-0.038894 -0.0398301 0.0320003
0.0244826 0.0192717 -0.0133634
0.0217619 0.0272126 -0.0231013
-0.0387907 -0.0389274 0.0297611
0.00782807 0.00302256 0.000591544
0.0309134 0.0352799 -0.0302239
-0.0327205 -0.0316344 0.0250773
-0.00153992 -0.00820132 0.00765162
0.0331286 0.0406629 -0.0319862
-0.0307059 -0.033833 0.0235643
-0.000227064 -0.00269739 0.00783392
0.0284219 0.03238 -0.0318755
-0.0290893 -0.0282344 0.0277123
0.00395959 -0.00544249 -0.000620366
0.0248052 0.0413272 -0.0260143
-0.0355838 -0.0540731 0.031636
0.0233048 0.0390545 -0.0134156
3.66867e-05 -0.0124994 -0.014515
-0.0167131 -0.00270276 0.033363
0.0157005 -0.00746062 -0.0325554
0.00207008 0.0415466 0.0148151
-0.026911 -0.0868412 0.00774628
0.0477999 0.12914 -0.0219822
-0.058685 -0.161258 0.020723
0.0606425 0.18614 -0.00507876
-0.0600328 -0.21455 -0.0178648
0.0647886 0.260051 0.0395822
-0.0811642 -0.33447 -0.0541734
0.112287 0.445838 0.0603168
-0.158596 -0.599063 -0.0609432
0.21942 0.798451 0.0614464
-0.294798 -1.05073 -0.0676144
0.386837 1.36769 0.084095
-0.500444 -1.76785 -0.113874
0.643464 2.27761 0.1585
-0.826688 -2.93197 -0.219033
1.06375 3.77577 0.296834
-1.37168 -4.86528 -0.394772
1.77123 6.27153 0.517378
-2.2888 -8.08354 -0.672159
2.95689 10.415 0.86864
-3.81826 -13.4093 -1.12092
4.92527 17.2513 1.44487
-6.34865 -22.1735 -1.86429
8.17304 28.4773 2.4037
-10.5155 -36.5387 -3.1032
13.5121 46.8489 3.99951
-17.3552 -60.0112 -5.16226
22.264 76.8266 6.64325
-28.5498 -98.2527 -8.56932
36.5695 125.604 11.0011
-46.8181 -160.372 -14.186
59.8841 204.744 18.1513
-76.5428 -260.976 -23.4199
97.7667 332.792 29.8303
-124.764 -423.415 -38.5703
159.159 539.418 48.8128
-202.691 -684.868 -63.4162
258.542 872.088 79.4353
-327.943 -1104.15 -104.337
419.379 1406.98 128.086
-528.599 -1773.6 -172.551
678.42 2266.08 203.916
-849.253 -2838.51 -286.969
0.0273814 0.0274206 -0.0231032
-0.0192848 -0.0119703 0.00655671
-0.00885215 -0.025538 0.0221314
0.090764 0.0686816 -0.0480119
0.0340438 0.0431484 -0.0371828
-0.108027 -0.083172 0.0594639
-0.0362916 -0.0273907 0.0217342
0.0502164 0.023329 -0.0134081
0.0779067 0.0631424 -0.046534
-0.0186759 0.000110102 -0.00499152
-0.0962064 -0.0766896 0.0564634
0.00112616 -0.00743103 0.00886865
0.0800271 0.0549946 -0.0383749
0.0344905 0.0394762 -0.0328101
-0.0777613 -0.0552243 0.0382606
-0.0482879 -0.0468719 0.0376401
0.0655385 0.0435152 -0.0291432
0.0588197 0.0547218 -0.0430732
-0.0555992 -0.0350424 0.0225577
-0.0650313 -0.0601183 0.0470842
0.0513141 0.0324808 -0.0207402
0.0648601 0.060063 -0.0470874
-0.0496703 -0.031559 0.0201209
-0.0624964 -0.0598249 0.0473672
0.0538046 0.0368509 -0.0244803
0.0549376 0.055198 -0.044499
-0.0608092 -0.045169 0.0313894
-0.0422608 -0.0465862 0.0387617
0.0693046 0.0563927 -0.040959
0.0222707 0.0306797 -0.0274014
-0.0745292 -0.066126 0.0500205
0.00492329 -0.00653559 0.00916406
0.0705337 0.0687681 -0.0540329
-0.0361659 -0.0248693 0.0154941
-0.0506973 -0.0559628 0.0464384
0.0620255 0.0551168 -0.0409993
0.0132308 0.0233451 -0.0221765
-0.0682546 -0.0700291 0.055271
0.0329966 0.0250945 -0.0157576
0.0420714 0.0507416 -0.0437801
-0.063555 -0.0636931 0.0499639
0.0105056 0.00125161 0.00240835
0.0523498 0.063114 -0.0519482
-0.0572207 -0.0602844 0.0452152
0.0039997 -0.0029298 0.00835908
0.050192 0.0603351 -0.0535943
-0.0544395 -0.0574367 0.0481589
0.00922296 -0.000481201 0.000395261
0.0427086 0.061469 -0.0479354
-0.0590462 -0.0769351 0.0555397
0.031215 0.0396866 -0.0195777
0.0153135 0.0169347 -0.0307923
-0.0455501 -0.0492393 0.0595508
0.0405258 0.0344208 -0.0494353
-0.00629851 0.0185135 0.0100384
-0.0349259 -0.0801652 0.032599
0.0611875 0.121918 -0.0539672
-0.0629653 -0.132019 0.0442485
0.0455716 0.119012 -0.0106077
-0.0233494 -0.104163 -0.0297159
0.0110802 0.109789 0.0595462
-0.0176342 -0.150312 -0.0693975
0.044112 0.22942 0.0598445
-0.0859012 -0.342834 -0.0391593
0.136546 0.483982 0.0186129
-0.191324 -0.649544 -0.00802951
0.249328 0.843061 0.0131624
-0.313857 -1.07611 -0.0353147
0.391689 1.36781 0.0725209
-0.491954 -1.74365 -0.121587
0.625252 2.23484 0.179803
-0.803391 -2.87834 -0.246502
1.03968 3.71885 0.323253
-1.34997 -4.81074 -0.414719
1.75369 6.22315 0.527253
-2.2761 -8.04273 -0.670826
2.9489 10.3829 0.85556
-3.81492 -13.3856 -1.09776
4.92598 17.2386 1.41118
-6.35526 -22.1729 -1.82314
8.18453 28.4983 2.35167
-10.5399 -36.5863 -3.04556
13.5444 46.9461 3.92655
-17.4196 -60.1699 -5.08509
22.3396 77.0934 6.54108
-28.7015 -98.6532 -8.46541
36.7335 126.224 10.8568
-47.146 -161.268 -14.0456
60.2276 206.07 17.9478
-77.2015 -262.837 -23.2364
98.4735 335.484 29.5399
-126.033 -427.095 -38.3603
160.525 544.712 48.3781
-205.245 -691.95 -63.2302
260.743 882.117 78.8319
-333.524 -1117.91 -103.991
422.587 1424.97 127.846
-538.859 -1800.59 -170.937
686.74 2299.66 203.926
-865.731 -2887.11 -284.965
-0.039943 -0.0355127 0.0293855
0.018016 0.0325851 -0.0252909
-0.0863217 -0.0455049 0.0264939
-0.130058 -0.130615 0.102105
0.131389 0.0914866 -0.060209
0.134858 0.104933 -0.0793573
-0.0550403 -0.0261985 0.014023
-0.132377 -0.0886552 0.0613629
-0.0461875 -0.0637271 0.0545701
0.155739 0.116082 -0.0818971
0.0715657 0.0660446 -0.053185
-0.109123 -0.0663423 0.0429716
-0.115296 -0.101467 0.0780117
0.076584 0.0408913 -0.0232939
0.136157 0.114675 -0.086773
-0.0484819 -0.0194487 0.00752884
-0.139727 -0.113434 0.0845261
0.0208381 -0.00450161 0.0106501
0.143732 0.117598 -0.0874315
-0.00884019 0.0126427 -0.0165142
-0.140329 -0.114686 0.0851489
0.0035999 -0.017432 0.0202592
0.138679 0.116318 -0.0870434
-0.0104437 0.0110154 -0.015452
-0.134777 -0.116916 0.0886194
0.0265802 0.00346914 0.00448535
0.127702 0.116611 -0.0901328
-0.0520078 -0.0279351 0.014523
-0.111911 -0.109451 0.0869295
0.0827349 0.0599501 -0.0402294
0.0817962 0.0891581 -0.0737506
-0.110995 -0.0939239 0.0687133
-0.0332008 -0.0488009 0.0446045
0.123015 0.11659 -0.0901472
-0.0300953 -0.0116483 0.00219072
-0.102541 -0.109754 0.0891888
0.090502 0.0789868 -0.0570179
0.0406762 0.0569045 -0.0516828
-0.115352 -0.118441 0.0938633
0.0457031 0.0322295 -0.0193377
0.0754527 0.0925667 -0.0784374
-0.106793 -0.11139 0.0861941
0.0212344 0.00878455 0.00106262
0.082678 0.101073 -0.087361
-0.0998003 -0.10691 0.0857112
0.0210086 0.00806652 -0.0016858
0.074088 0.0998947 -0.0836571
-0.102094 -0.123165 0.0956008
0.0464201 0.0485132 -0.0279338
0.0412362 0.0579536 -0.0617445
-0.0924482 -0.113129 0.105243
0.074463 0.079535 -0.0747223
-0.00577807 0.0165351 -0.00448217
-0.0659443 -0.112981 0.0788712
0.0991148 0.156522 -0.104351
-0.0812508 -0.132385 0.0702036
0.0297405 0.065617 0.00106605
0.0236562 -0.000847413 -0.0716236
-0.0515335 -0.022922 0.109798
0.0423537 -0.011545 -0.103456
-0.00141679 0.0977924 0.0612065
-0.055845 -0.214705 -0.00442654
0.112886 0.339401 -0.0437479
-0.158906 -0.457606 0.0670597
0.191606 0.568411 -0.059803
-0.216262 -0.683588 0.0257399
0.242797 0.823751 0.025765
-0.282624 -1.01384 -0.0842753
0.34647 1.28003 0.141686
-0.443563 -1.64861 -0.194173
0.582092 2.14729 0.2422
-0.770364 -2.80736 -0.290192
1.01845 3.66803 0.344661
-1.33968 -4.77912 -0.414479
1.75233 6.20767 0.508049
-2.28096 -8.03881 -0.637032
2.9582 10.3881 0.810105
-3.82679 -13.3966 -1.04496
4.94109 17.2593 1.35014
-6.37329 -22.2022 -1.75872
8.20936 28.5523 2.27536
-10.5737 -36.663 -2.96883
13.5928 47.0865 3.82442
-17.4951 -60.3613 -4.99137
22.436 77.4321 6.39091
-28.8777 -99.0932 -8.35109
36.9094 126.977 10.6206
-47.5582 -162.216 -13.9108
60.5092 207.635 17.5667
-78.1397 -264.805 -23.0764
98.8864 338.585 28.9319
-128.005 -431.06 -38.1383
161.269 550.701 47.3995
-208.842 -699.615 -62.9109
262.657 893.818 76.9294
-339.742 -1131.8 -103.946
425.42 1447.99 123.136
-555.062 -1826.59 -171.01
683.142 2336.83 197.826
-899.183 -2941.81 -276.686
0.0569773 0.0303311 -0.0240162
0.0532436 -0.00394766 0.0122239
0.227197 0.203499 -0.150668
-0.061359 -0.00155111 -0.0159191
-0.313368 -0.248541 0.182951
0.00604848 -0.00551156 0.0114333
0.20406 0.116366 -0.0753762
0.174956 0.168697 -0.131798
-0.180313 -0.113256 0.0719663
-0.224577 -0.184606 0.139699
0.0955848 0.0418125 -0.019357
0.24369 0.187331 -0.136876
-0.00216568 0.0365844 -0.0396912
-0.257061 -0.197422 0.142837
-0.0504682 -0.0702504 0.0629056
0.232794 0.169013 -0.119231
0.101623 0.11306 -0.0945101
-0.218575 -0.158806 0.11111
-0.124108 -0.128438 0.105271
0.201839 0.144572 -0.100079
0.134645 0.138666 -0.113206
-0.196717 -0.143813 0.100096
-0.128145 -0.135212 0.111309
0.1998 0.151466 -0.107076
0.106884 0.120806 -0.10173
-0.21002 -0.16845 0.122146
-0.0677991 -0.0904803 0.0801996
0.219695 0.188351 -0.140708
0.00954972 0.040693 -0.0432525
-0.216962 -0.20071 0.154867
0.0653877 0.0301701 -0.0114367
0.185509 0.188241 -0.15101
-0.143883 -0.113532 0.0788337
-0.111054 -0.132175 0.11279
0.197788 0.184356 -0.140056
-0.00562646 0.0237229 -0.0308959
-0.187771 -0.198539 0.160253
0.130447 0.111388 -0.0787246
0.0883332 0.116875 -0.103113
-0.193238 -0.202459 0.159668
0.0712169 0.0516001 -0.0291113
0.125116 0.155829 -0.134791
-0.181333 -0.194381 0.154353
0.0513653 0.0322362 -0.015239
0.123798 0.162449 -0.139397
-0.178728 -0.20695 0.164221
0.075542 0.0702592 -0.0428798
0.0855902 0.121831 -0.115374
-0.171584 -0.211718 0.182021
0.124536 0.136188 -0.111247
0.00992953 0.0420932 -0.0387896
-0.133698 -0.198138 0.162083
0.170445 0.236778 -0.181668
-0.10846 -0.146506 0.0923365
-0.00572937 -0.00842218 0.0485848
0.1052 0.136889 -0.163748
-0.141686 -0.172757 0.199358
0.104801 0.101572 -0.146691
-0.0177904 0.0440926 0.0370175
-0.080853 -0.209412 0.0801042
0.157085 0.345167 -0.160591
-0.193431 -0.425964 0.181004
0.191146 0.454611 -0.141722
-0.164999 -0.455499 0.0607199
0.135242 0.463185 0.0367032
-0.120625 -0.511844 -0.127426
0.134468 0.628971 0.196356
-0.183944 -0.833889 -0.238243
0.27168 1.14024 0.256201
-0.398331 -1.56017 -0.258968
0.565297 2.10965 0.257478
-0.776696 -2.81219 -0.263115
1.04106 3.70374 0.285392
-1.3719 -4.83389 -0.333515
1.78911 6.27239 0.413661
-2.31876 -8.10696 -0.53548
2.99605 10.4583 0.703466
-3.86404 -13.4685 -0.935056
4.98099 17.3406 1.23246
-6.41564 -22.2958 -1.63472
8.26393 28.6802 2.13137
-10.6357 -36.8237 -2.81508
13.6878 47.3362 3.62465
-17.6012 -60.6712 -4.79003
22.6182 77.951 6.08362
-29.0725 -99.6898 -8.09442
37.2553 128.056 10.1043
-47.9466 -163.321 -13.6306
61.0934 209.841 16.626
-79.048 -266.775 -22.8996
99.5618 342.945 27.1237
-130.499 -434.552 -38.3043
160.977 558.795 43.9528
-215.72 -706.139 -63.4068
258.816 907.432 70.8206
-354.498 -1144.34 -103.251
418.605 1470.08 111.585
-572.767 -1842.84 -168.226
673.705 2384.48 158.565
-945.285 -2957.08 -265.03
-0.0823328 -0.0132973 0.00736983
-0.231906 -0.17448 0.120204
-0.133623 -0.213207 0.184265
0.515593 0.397994 -0.282259
0.190924 0.155072 -0.12515
-0.289717 -0.160613 0.100645
-0.37706 -0.302854 0.224105
0.0993828 0.00993075 0.0158735
0.465632 0.364919 -0.266865
0.0285812 0.0657076 -0.0658105
-0.399646 -0.276648 0.192224
-0.205905 -0.215991 0.176594
0.362621 0.252094 -0.172098
0.284387 0.259176 -0.203822
-0.273525 -0.168212 0.106582
-0.349987 -0.310613 0.239998
0.210968 0.119348 -0.0696193
0.373946 0.32499 -0.248769
-0.161621 -0.0781049 0.038254
-0.383023 -0.334469 0.25577
0.141605 0.0638705 -0.027744
0.377518 0.335176 -0.257548
-0.148911 -0.0732744 0.0352753
-0.360624 -0.330854 0.25719
0.183699 0.109214 -0.0636968
0.326156 0.314585 -0.249212
-0.240173 -0.169203 0.111977
-0.263602 -0.274848 0.224283
0.305579 0.245305 -0.175188
0.160553 0.195364 -0.168631
-0.354874 -0.316562 0.238303
-0.012537 -0.064007 0.0702617
0.350113 0.345304 -0.271836
-0.161832 -0.111796 0.0683146
-0.25111 -0.28195 0.234746
0.305218 0.281993 -0.211391
0.0476602 0.0967642 -0.0967425
-0.327969 -0.349655 0.280812
0.19575 0.167436 -0.115441
0.162915 0.213925 -0.189183
-0.324866 -0.349213 0.278396
0.12931 0.100963 -0.0621364
0.193593 0.253849 -0.221026
-0.314729 -0.356365 0.28496
0.136363 0.121489 -0.0773991
0.157227 0.221614 -0.202471
-0.306846 -0.37268 0.310924
0.204122 0.218103 -0.167059
0.0509792 0.108073 -0.106953
-0.261798 -0.361136 0.305876
0.29008 0.374082 -0.297296
-0.135741 -0.155054 0.0974763
-0.0903428 -0.147083 0.162775
0.253642 0.354012 -0.333604
-0.274797 -0.360791 0.331411
0.1585 0.175601 -0.169585
0.0278204 0.106901 -0.0664788
-0.199406 -0.366487 0.2721
0.294564 0.513992 -0.371162
-0.293561 -0.519903 0.339471
0.215155 0.411745 -0.201421
-0.0997745 -0.251333 0.00974777
-0.0095123 0.107169 0.178556
0.0805364 -0.0335401 -0.320383
-0.0973753 0.0611623 0.394658
0.0588181 -0.198348 -0.401504
0.027024 0.438727 0.355874
-0.148833 -0.770875 -0.279706
0.297112 1.18699 0.195067
-0.467089 -1.68853 -0.120183
0.660117 2.28989 0.0673937
-0.883404 -3.01895 -0.0442542
1.15006 3.91913 0.0536487
-1.47787 -5.04762 -0.0980351
1.89069 6.48165 0.176996
-2.41685 -8.31366 -0.296097
3.094 10.67 0.455055
-3.96537 -13.6934 -0.671222
5.0917 17.5943 0.941034
-6.53982 -22.589 -1.30909
8.41155 29.0413 1.75087
-10.8088 -37.2624 -2.37851
13.9093 47.9122 3.0892
-17.8581 -61.3777 -4.17644
22.9821 78.9353 5.28222
-29.4515 -100.858 -7.20935
37.9095 129.825 8.80874
-48.4509 -165.224 -12.3445
62.3773 213.17 14.2822
-79.5327 -269.624 -21.0935
102.154 349.494 22.2561
-130.631 -437.854 -36.1219
165.356 571.905 32.6326
-216.557 -706.836 -61.8792
260.011 931.754 43.7988
-367.904 -1134.12 -103.626
387.021 1499.97 54.3137
-633.584 -1810.98 -157.045
576.47 2360.14 69.8636
-1003.98 -2780.62 -252.972
0.127058 0.0507789 -0.0351855
0.33118 0.451231 -0.368662
-0.611816 -0.38487 0.240009
-0.692071 -0.582236 0.444916
0.342385 0.183765 -0.104925
0.69979 0.487474 -0.343446
0.198504 0.295741 -0.258162
-0.776127 -0.572506 0.402088
-0.391743 -0.367185 0.294348
0.522852 0.304501 -0.190155
0.64184 0.566234 -0.434591
-0.340178 -0.168192 0.0875057
-0.715672 -0.585643 0.437756
0.123174 -0.0158826 0.050964
0.745886 0.595829 -0.438671
0.0329863 0.136425 -0.139433
-0.726451 -0.567656 0.412785
-0.141055 -0.222533 0.202943
0.699715 0.544409 -0.393726
0.191969 0.26304 -0.233002
-0.678753 -0.533418 0.386383
-0.190577 -0.263495 0.234278
0.671453 0.542663 -0.397161
0.136572 0.22063 -0.203693
-0.671539 -0.567316 0.422787
-0.0290242 -0.128969 0.135841
0.660189 0.591464 -0.451606
-0.130219 -0.0175861 -0.0238283
-0.6049 -0.583671 0.459388
0.325095 0.21421 -0.13195
0.465272 0.498637 -0.409139
-0.510551 -0.428008 0.309422
-0.211931 -0.290973 0.26073
0.603025 0.579308 -0.448296
-0.134775 -0.0447621 -0.00111905
-0.500218 -0.548794 0.450168
0.461233 0.416875 -0.305614
0.154876 0.242882 -0.228158
-0.563297 -0.605025 0.486043
0.307432 0.259992 -0.176422
0.279644 0.376102 -0.333378
-0.552482 -0.61231 0.49092
0.260825 0.226714 -0.148724
0.271175 0.3791 -0.342427
-0.539708 -0.637747 0.524111
0.333924 0.339226 -0.249196
0.139422 0.244864 -0.237463
-0.492882 -0.646694 0.54751
0.479538 0.580995 -0.45979
-0.140368 -0.117554 0.0512959
-0.277694 -0.42168 0.399368
0.515742 0.704443 -0.617105
-0.456554 -0.583563 0.489996
0.159222 0.144068 -0.102242
0.209282 0.383674 -0.343891
-0.478356 -0.762122 0.646151
0.550963 0.853454 -0.691321
-0.426221 -0.655042 0.482736
0.175363 0.269996 -0.112965
0.103122 0.154467 -0.28994
-0.324106 -0.486225 0.613286
0.438458 0.643979 -0.790033
-0.4362 -0.605121 0.805143
0.336421 0.39301 -0.684384
-0.172227 -0.0550933 0.47547
-0.0227281 -0.35825 -0.230008
0.222975 0.808682 -0.00906835
-0.414717 -1.27715 0.213225
0.59564 1.7652 -0.368765
-0.772401 -2.29234 0.473569
0.958183 2.89299 -0.533276
-1.16989 -3.6128 0.556427
1.42787 4.50907 -0.552849
-1.75403 -5.64849 0.529015
2.17535 7.11512 -0.491853
-2.72051 -9.00523 0.43972
3.42976 11.4504 -0.377829
-4.34448 -14.5951 0.290723
5.53112 18.6596 -0.190894
-7.05162 -23.8586 0.0325275
9.0202 30.5796 0.138791
-11.5282 -39.1173 -0.449737
14.7744 50.1875 0.745736
-18.8874 -64.1111 -1.38008
24.2162 82.296 1.86475
-30.919 -104.804 -3.19291
39.6378 134.624 3.88488
-50.4421 -170.522 -6.7468
64.7171 219.412 7.37409
-81.6987 -275.349 -13.7702
105.364 355.796 12.8247
-130.452 -439.071 -27.8134
171.059 573.184 19.0958
-203.061 -685.051 -56.3955
275.233 915.776 17.0268
-307.22 -1027.41 -115.925
416.06 1444.48 -31.1228
-497.701 -1436.32 -237.841
417.111 2177.19 -218.692
-975.305 -1977.38 -256.287
-0.190836 -0.299574 0.260446
0.333909 -0.119881 0.202074
1.53258 1.19587 -0.86323
-0.0310105 0.031682 -0.0588638
-1.02557 -0.525145 0.322741
-0.927632 -0.849626 0.65819
0.84604 0.493672 -0.301713
1.11177 0.825777 -0.604988
-0.272444 -0.00619926 -0.0609056
-1.26457 -0.916776 0.654336
-0.149983 -0.27034 0.254237
1.17718 0.799694 -0.551699
0.510101 0.523422 -0.431558
-1.02743 -0.669505 0.447737
-0.740181 -0.673704 0.532958
0.856458 0.531427 -0.341591
0.872048 0.761882 -0.592222
-0.721594 -0.431496 0.26698
-0.925115 -0.800357 0.618548
0.646217 0.383549 -0.232786
0.920451 0.805562 -0.624527
-0.640806 -0.397072 0.246246
-0.864203 -0.779238 0.61103
0.701701 0.472452 -0.30866
0.747655 0.709408 -0.568144
-0.810904 -0.600435 0.415047
-0.549654 -0.569841 0.474011
0.928704 0.752696 -0.546402
0.248744 0.328412 -0.300139
-0.985558 -0.869432 0.658588
0.151341 0.030803 0.0278747
0.884814 0.852855 -0.674796
-0.582716 -0.465299 0.31836
-0.53838 -0.591842 0.500257
0.881653 0.826748 -0.628363
-0.0463127 0.0460286 -0.0872471
-0.820322 -0.862457 0.698711
0.655549 0.613442 -0.449276
0.273149 0.367894 -0.340956
-0.867691 -0.93971 0.755781
0.514425 0.494057 -0.351785
0.35642 0.472199 -0.430097
-0.858923 -0.986261 0.804841
0.554357 0.579314 -0.428276
0.231821 0.356345 -0.345225
-0.811544 -1.01389 0.850732
0.74447 0.877895 -0.689058
-0.126917 -0.0766147 -0.00304319
-0.57146 -0.801314 0.722823
0.889342 1.17153 -0.991958
-0.661886 -0.822984 0.655983
0.060745 -0.0166513 0.0732207
0.567424 0.880135 -0.792692
-0.915205 -1.34314 1.14732
0.852853 1.21886 -0.990147
-0.445575 -0.593738 0.407183
-0.119849 -0.265282 0.365265
0.636915 1.05185 -1.06212
-0.957576 -1.53603 1.48791
1.02426 1.61818 -1.56149
-0.860422 -1.32235 1.30919
0.538427 0.752723 -0.826703
-0.144013 -0.040948 0.233478
-0.250013 -0.696107 0.36353
0.596771 1.37982 -0.889851
-0.876789 -1.97557 1.30809
1.09255 2.48664 -1.61224
-1.26045 -2.94296 1.81725
1.40365 3.38997 -1.94862
-1.54675 -3.88013 2.03402
1.71347 4.46888 -2.09843
-1.92546 -5.21303 2.16112
2.20425 6.17398 -2.23634
-2.57062 -7.41884 2.33182
3.05058 9.0302 -2.45386
-3.67038 -11.1032 2.60096
4.47165 13.769 -2.7786
-5.49149 -17.1728 2.97419
6.80474 21.5386 -3.20507
-8.45999 -27.082 3.43206
10.599 34.206 -3.71877
-13.2692 -43.194 3.94606
16.7485 54.8168 -4.33118
-21.0382 -69.3246 4.50919
26.6871 88.307 -5.17858
-33.5452 -111.54 5.2294
42.6468 142.557 -6.79972
-53.5411 -179.179 6.57776
67.9068 229.72 -10.8241
-85.0416 -285.61 9.92359
106.754 367.043 -21.4572
-132.973 -446.556 18.3496
163.651 573.959 -48.1753
-198.935 -668.122 36.5709
242.941 855.346 -109.597
-256.375 -897.504 62.9479
369.074 1147.06 -239.68
-123.996 -839.471 36.962
701.625 1231.29 -559.679
398.874 1020.23 -782.882
0.148542 0.777077 -0.768695
-2.41456 -2.10703 1.52282
-0.260327 -0.0409768 0.0369222
1.40028 1.03282 -0.739656
1.51481 1.27839 -0.980299
-0.912057 -0.809362 0.565313
-1.79023 -1.48499 1.11594
0.0719872 0.056447 0.00405638
1.86674 1.60782 -1.19974
0.608964 0.535576 -0.448774
-1.65018 -1.44161 1.06344
-1.13976 -1.03476 0.825438
1.33147 1.17531 -0.854091
1.48076 1.37529 -1.08248
-1.00386 -0.881917 0.624289
-1.67517 -1.59193 1.24797
0.744824 0.638147 -0.432868
1.76863 1.72041 -1.34933
-0.59454 -0.487505 0.31306
-1.80071 -1.79717 1.41538
0.574257 0.459298 -0.288483
1.78776 1.83915 -1.45998
-0.692707 -0.573476 0.376745
-1.71607 -1.8343 1.4744
0.946041 0.841465 -0.590555
1.53822 1.73241 -1.41892
-1.30415 -1.25211 0.926909
-1.17857 -1.44277 1.21875
1.68321 1.73878 -1.34006
0.561291 0.854016 -0.776919
-1.91561 -2.13318 1.70144
0.321573 0.0974075 0.0260389
1.75166 2.139 -1.77
-1.29841 -1.28803 0.956652
-0.96272 -1.41242 1.24655
1.93049 2.24883 -1.80757
-0.404182 -0.147909 -0.00160932
-1.62188 -2.19047 1.86426
1.7162 1.93412 -1.51788
0.142988 0.566272 -0.603498
-1.84454 -2.50117 2.12136
1.63508 1.85499 -1.44878
0.180888 0.654884 -0.693049
-1.82285 -2.60269 2.23958
1.85233 2.27139 -1.82317
-0.339782 -0.0198603 -0.149645
-1.43767 -2.30657 2.07316
2.16231 2.99308 -2.5305
-1.4122 -1.6424 1.26349
-0.228005 -0.787057 0.84738
1.72313 2.80734 -2.51638
-2.27038 -3.34033 2.85109
1.67248 2.1969 -1.73864
-0.2947 0.0215755 -0.262624
-1.23575 -2.36609 2.31595
2.35588 4.00505 -3.70605
-2.76242 -4.4991 4.06839
2.44153 3.83968 -3.41405
-1.58336 -2.32317 2.01536
0.458167 0.368571 -0.246058
0.686867 1.63692 -1.55206
-1.68426 -3.42585 3.14389
2.45818 4.87267 -4.41877
-3.0075 -5.9716 5.37021
3.37769 6.79571 -6.05964
-3.63419 -7.45624 6.58066
3.84357 8.0726 -7.03242
-4.0635 -8.75543 7.50442
4.33984 9.60103 -8.07092
-4.70803 -10.6932 8.79164
5.19682 12.1096 -9.71604
-5.83197 -13.9287 10.8883
6.64069 16.2384 -12.3525
-7.65328 -19.142 14.1559
8.90846 22.7671 -16.3536
-10.4501 -27.2674 19.0061
12.3395 32.8376 -22.1871
-14.637 -39.702 25.968
17.4419 48.1531 -30.4415
-20.8219 -58.4891 35.6603
24.9468 71.1402 -41.728
-29.8417 -86.4162 48.5772
35.833 104.951 -56.3165
-42.7255 -126.777 64.448
51.2417 152.901 -73.1604
-60.425 -182.085 80.6232
72.0421 216.312 -87.6235
-82.913 -249.993 88.4283
97.4056 288.348 -86.756
-106.747 -312.499 65.7859
120.669 338.781 -40.8593
-119.346 -310.567 -35.4956
117.771 280.141 107.773
-87.7186 -90.9967 -304.99
14.7683 -99.7074 448.101
55.0045 686.79 -869.005
-406.015 -1255.06 1056.83
391.418 2647.81 -1773.48
-1641.97 -4108.49 1890.53
2397.99 5988.09 -1810.25
0.660318 -0.373081 0.62603
3.13906 3.75876 -2.99842
-2.65878 -0.386987 -0.147291
-5.99177 -5.68546 4.3443
-0.0610907 -2.16879 2.16531
6.08832 4.7034 -3.32516
3.09963 4.63277 -3.93551
-4.7167 -2.62751 1.56428
-5.16645 -5.88831 4.72953
2.67991 0.253465 0.353042
6.23388 6.12297 -4.72776
-0.538286 1.92287 -2.05122
-6.46446 -5.63191 4.18689
-1.31593 -3.63177 3.34896
6.18061 4.79478 -3.41383
2.71115 4.82267 -4.23287
-5.70365 -3.93631 2.66116
-3.62521 -5.57197 4.78365
5.28653 3.29077 -2.10723
4.10166 5.9923 -5.10396
-5.0927 -3.00795 1.86637
-4.17949 -6.16355 5.26516
5.19755 3.17523 -2.01059
3.84743 6.08442 -5.26868
-5.5844 -3.82527 2.57831
-3.02901 -5.64233 5.01859
6.1191 4.90755 -3.55156
1.61019 4.60957 -4.31053
-6.50467 -6.20899 4.78632
0.464463 -2.70316 2.86852
6.25538 7.24102 -5.90306
-3.0066 -0.229559 -0.488573
-4.78356 -7.17812 6.20164
5.34711 3.84731 -2.64852
1.74038 5.06504 -4.78547
-6.25633 -6.90066 5.56881
2.35606 -0.54555 1.15126
4.42481 7.25132 -6.39869
-5.57874 -4.93196 3.70643
0.177838 -3.20524 3.38063
5.20767 7.62342 -6.60917
-4.83952 -3.7811 2.69405
-0.385148 -3.84877 3.93629
4.9817 7.59688 -6.66879
-4.84299 -4.31954 3.25972
0.597561 -2.59037 2.89924
3.878 7.22795 -6.60522
-5.19103 -6.29644 5.26377
2.82025 1.0044 -0.281514
1.1987 4.72767 -4.73099
-4.20932 -7.38548 6.74646
4.68206 5.84717 -4.97291
-2.75782 -1.39325 0.731279
-0.298781 -3.58487 3.76666
3.03467 7.01441 -6.69247
-4.50384 -7.93315 7.26548
4.48254 6.51351 -5.72634
-3.30265 -3.61476 2.9056
1.53485 0.246446 0.266118
0.286174 2.80665 -3.0884
-1.80861 -5.12859 5.20855
2.88822 6.63856 -6.58028
-3.53924 -7.47274 7.35038
3.86255 7.85935 -7.74351
-3.98427 -8.02807 7.98071
4.01745 8.16307 -8.2389
-4.04594 -8.39069 8.6421
4.12337 8.78732 -9.2708
-4.27955 -9.39505 10.178
4.5288 10.2371 -11.405
-4.87717 -11.3296 12.9934
5.32751 12.6887 -14.9937
-5.88231 -14.3347 17.4703
6.54512 16.2924 -20.5051
-7.32027 -18.5899 24.1985
8.21328 21.2564 -28.6709
-9.22753 -24.3162 34.0612
10.3679 27.7848 -40.5258
-11.6281 -31.651 48.2262
13.012 35.8767 -57.3271
-14.4822 -40.3396 67.9451
16.0608 44.8721 -80.1595
-17.6136 -49.0603 93.8248
19.2932 52.4986 -108.699
-20.6391 -54.0378 123.759
22.418 53.041 -137.98
-22.9914 -46.4679 147.803
25.6012 34.3542 -150.904
-24.2648 -8.49077 136.78
31.3811 -25.4189 -102.909
-25.1871 90.8688 19.9457
50.0252 -155.893 104.154
-28.6208 292.373 -350.652
111.889 -367.528 650.36
-34.2177 613 -1232.19
290.595 -545.464 1770.21
1.79079 934.554 -2932.51
711.713 -144.879 3454.11
56.9756 811.606 -5456.75
-1563.25 2725.52 3761.23
